 vasp.5.4.4.18Apr17-6-g9f103f2a35 (build Jun 23 2019 17:35:09) complex

 executed on             LinuxIFC date 2020.01.14  23:16:47

 INCAR:
 POTCAR:    PAW_PBE Bi_d 06Sep2000
 POTCAR:    PAW_PBE K_sv 06Sep2000
 POTCAR:    PAW_PBE Rb_sv 06Sep2000

 POTCAR:    PAW_PBE Bi_d 06Sep2000
   VRHFIN =Bi:

   TITEL  = PAW_PBE Bi_d 06Sep2000
   POMASS =  208.980; ZVAL   =   15.000    mass and valenz
   ENMAX  =  242.839; ENMIN  =  182.129 eV

 POTCAR:    PAW_PBE K_sv 06Sep2000
   VRHFIN =K:  3s3p4s

   TITEL  = PAW_PBE K_sv 06Sep2000
   POMASS =   39.098; ZVAL   =    9.000    mass and valenz
   ENMAX  =  259.264; ENMIN  =  194.448 eV

 POTCAR:    PAW_PBE Rb_sv 06Sep2000
   VRHFIN =Rb: 4s4p5s

   TITEL  = PAW_PBE Rb_sv 06Sep2000
   POMASS =   85.468; ZVAL   =    9.000    mass and valenz
   ENMAX  =  220.112; ENMIN  =  165.084 eV

  PAW_PBE Bi_d 06Sep2000                :
  PAW_PBE K_sv 06Sep2000                :
  PAW_PBE Rb_sv 06Sep2000               :

 POSCAR: K Bi Rb
  positions in direct lattice
 exchange correlation table for  LEXCH =        8
   RHO(1)=    0.500       N(1)  =     2000
   RHO(2)=  100.500       N(2)  =     4000

 ion  position               nearest neighbor table
   1  0.250  0.250  0.250-   2 3.81   3 3.81   3 3.81   3 3.81   3 3.81   2 3.81   2 3.81   2 3.81
                             4 4.40   4 4.40   4 4.40   4 4.40   4 4.40   4 4.40
   2  0.000  0.000  0.000-   1 3.81   4 3.81   4 3.81   4 3.81   1 3.81   1 3.81   1 3.81   4 3.81

   3  0.500  0.500  0.500-   4 3.81   1 3.81   1 3.81   1 3.81   1 3.81   4 3.81   4 3.81   4 3.81

   4  0.750  0.750  0.750-   3 3.81   2 3.81   2 3.81   2 3.81   3 3.81   3 3.81   3 3.81   2 3.81
                             1 4.40   1 4.40   1 4.40   1 4.40   1 4.40   1 4.40

  LATTYP: Found a face centered cubic cell.
 ALAT       =     8.7993220000

  Lattice vectors:

 A1 = (   0.0000000000,   4.3996610000,   4.3996610000)
 A2 = (   4.3996610000,   0.0000000000,   4.3996610000)
 A3 = (   4.3996610000,   4.3996610000,   0.0000000000)

Analysis of symmetry for initial positions (statically):
 Subroutine PRICEL returns:
 Original cell was already a primitive cell.

 Routine SETGRP: Setting up the symmetry group for a
 face centered cubic supercell.

 Subroutine GETGRP returns: Found 48 space group operations
 (whereof 24 operations were pure point group operations)
 out of a pool of 48 trial point group operations.

The static configuration has the point symmetry T_d .
 The point group associated with its full space group is O_h .

Analysis of symmetry for dynamics (positions and initial velocities):
 Subroutine PRICEL returns:
 Original cell was already a primitive cell.

 Routine SETGRP: Setting up the symmetry group for a
 face centered cubic supercell.

 Subroutine GETGRP returns: Found 48 space group operations
 (whereof 24 operations were pure point group operations)
 out of a pool of 48 trial point group operations.

The dynamic configuration has the point symmetry T_d .
 The point group associated with its full space group is O_h .

 Subroutine INISYM returns: Found 48 space group operations
 (whereof 24 operations are pure point group operations),
 and found     1 'primitive' translations

 KPOINTS: KPOINTS

Automatic generation of k-mesh.
Space group operators:
 irot       det(A)        alpha          n_x          n_y          n_z        tau_x        tau_y        tau_z
    1     1.000000     0.000000     1.000000     0.000000     0.000000     0.000000     0.000000     0.000000
    2     1.000000   120.000000    -0.577350    -0.577350    -0.577350     0.000000     0.000000     0.000000
    3     1.000000   120.000000     0.577350     0.577350     0.577350     0.000000     0.000000     0.000000
    4    -1.000000    90.000000     0.000000     0.000000    -1.000000     0.000000     0.000000     0.000000
    5    -1.000000   180.000000     0.000000     0.707107     0.707107     0.000000     0.000000     0.000000
    6    -1.000000    90.000000     0.000000     1.000000     0.000000     0.000000     0.000000     0.000000
    7     1.000000   180.000000     0.000000     0.000000     1.000000     0.000000     0.000000     0.000000
    8     1.000000   120.000000    -0.577350     0.577350     0.577350     0.000000     0.000000     0.000000
    9     1.000000   120.000000    -0.577350     0.577350    -0.577350     0.000000     0.000000     0.000000
   10    -1.000000    90.000000     0.000000     0.000000     1.000000     0.000000     0.000000     0.000000
   11    -1.000000    90.000000    -1.000000     0.000000     0.000000     0.000000     0.000000     0.000000
   12    -1.000000   180.000000     0.707107     0.000000     0.707107     0.000000     0.000000     0.000000
   13     1.000000   120.000000     0.577350    -0.577350     0.577350     0.000000     0.000000     0.000000
   14     1.000000   120.000000    -0.577350    -0.577350     0.577350     0.000000     0.000000     0.000000
   15     1.000000   180.000000     1.000000     0.000000     0.000000     0.000000     0.000000     0.000000
   16    -1.000000    90.000000     0.000000    -1.000000     0.000000     0.000000     0.000000     0.000000
   17    -1.000000   180.000000     0.707107     0.707107     0.000000     0.000000     0.000000     0.000000
   18    -1.000000    90.000000     1.000000     0.000000     0.000000     0.000000     0.000000     0.000000
   19     1.000000   120.000000     0.577350    -0.577350    -0.577350     0.000000     0.000000     0.000000
   20     1.000000   180.000000     0.000000     1.000000     0.000000     0.000000     0.000000     0.000000
   21     1.000000   120.000000     0.577350     0.577350    -0.577350     0.000000     0.000000     0.000000
   22    -1.000000   180.000000     0.000000    -0.707107     0.707107     0.000000     0.000000     0.000000
   23    -1.000000   180.000000     0.707107    -0.707107     0.000000     0.000000     0.000000     0.000000
   24    -1.000000   180.000000     0.707107     0.000000    -0.707107     0.000000     0.000000     0.000000
   25    -1.000000     0.000000     1.000000     0.000000     0.000000     0.500000     0.500000     0.500000
   26    -1.000000   120.000000    -0.577350    -0.577350    -0.577350     0.500000     0.500000     0.500000
   27    -1.000000   120.000000     0.577350     0.577350     0.577350     0.500000     0.500000     0.500000
   28     1.000000    90.000000     0.000000     0.000000    -1.000000     0.500000     0.500000     0.500000
   29     1.000000   180.000000     0.000000     0.707107     0.707107     0.500000     0.500000     0.500000
   30     1.000000    90.000000     0.000000     1.000000     0.000000     0.500000     0.500000     0.500000
   31    -1.000000   180.000000     0.000000     0.000000     1.000000     0.500000     0.500000     0.500000
   32    -1.000000   120.000000    -0.577350     0.577350     0.577350     0.500000     0.500000     0.500000
   33    -1.000000   120.000000    -0.577350     0.577350    -0.577350     0.500000     0.500000     0.500000
   34     1.000000    90.000000     0.000000     0.000000     1.000000     0.500000     0.500000     0.500000
   35     1.000000    90.000000    -1.000000     0.000000     0.000000     0.500000     0.500000     0.500000
   36     1.000000   180.000000     0.707107     0.000000     0.707107     0.500000     0.500000     0.500000
   37    -1.000000   120.000000     0.577350    -0.577350     0.577350     0.500000     0.500000     0.500000
   38    -1.000000   120.000000    -0.577350    -0.577350     0.577350     0.500000     0.500000     0.500000
   39    -1.000000   180.000000     1.000000     0.000000     0.000000     0.500000     0.500000     0.500000
   40     1.000000    90.000000     0.000000    -1.000000     0.000000     0.500000     0.500000     0.500000
   41     1.000000   180.000000     0.707107     0.707107     0.000000     0.500000     0.500000     0.500000
   42     1.000000    90.000000     1.000000     0.000000     0.000000     0.500000     0.500000     0.500000
   43    -1.000000   120.000000     0.577350    -0.577350    -0.577350     0.500000     0.500000     0.500000
   44    -1.000000   180.000000     0.000000     1.000000     0.000000     0.500000     0.500000     0.500000
   45    -1.000000   120.000000     0.577350     0.577350    -0.577350     0.500000     0.500000     0.500000
   46     1.000000   180.000000     0.000000    -0.707107     0.707107     0.500000     0.500000     0.500000
   47     1.000000   180.000000     0.707107    -0.707107     0.000000     0.500000     0.500000     0.500000
   48     1.000000   180.000000     0.707107     0.000000    -0.707107     0.500000     0.500000     0.500000

 Subroutine IBZKPT returns following result:

 Found     29 irreducible k-points:

 Following reciprocal coordinates:
            Coordinates               Weight
  0.000000  0.000000  0.000000      1.000000
  0.125000  0.000000  0.000000      8.000000
  0.250000  0.000000  0.000000      8.000000
  0.375000  0.000000  0.000000      8.000000
  0.500000  0.000000  0.000000      4.000000
  0.125000  0.125000  0.000000      6.000000
  0.250000  0.125000  0.000000     24.000000
  0.375000  0.125000  0.000000     24.000000
  0.500000  0.125000  0.000000     24.000000
 -0.375000  0.125000  0.000000     24.000000
 -0.250000  0.125000  0.000000     24.000000
 -0.125000  0.125000  0.000000     12.000000
  0.250000  0.250000  0.000000      6.000000
  0.375000  0.250000  0.000000     24.000000
  0.500000  0.250000  0.000000     24.000000
 -0.375000  0.250000  0.000000     24.000000
 -0.250000  0.250000  0.000000     12.000000
  0.375000  0.375000  0.000000      6.000000
  0.500000  0.375000  0.000000     24.000000
 -0.375000  0.375000  0.000000     12.000000
  0.500000  0.500000  0.000000      3.000000
  0.375000  0.250000  0.125000     24.000000
  0.500000  0.250000  0.125000     48.000000
 -0.375000  0.250000  0.125000     24.000000
  0.500000  0.375000  0.125000     24.000000
 -0.375000  0.375000  0.125000     48.000000
 -0.250000  0.375000  0.125000     24.000000
 -0.375000  0.500000  0.125000     12.000000
 -0.250000  0.500000  0.250000      6.000000

 Following cartesian coordinates:
            Coordinates               Weight
  0.000000  0.000000  0.000000      1.000000
 -0.014206  0.014206  0.014206      8.000000
 -0.028411  0.028411  0.028411      8.000000
 -0.042617  0.042617  0.042617      8.000000
 -0.056823  0.056823  0.056823      4.000000
  0.000000  0.000000  0.028411      6.000000
 -0.014206  0.014206  0.042617     24.000000
 -0.028411  0.028411  0.056823     24.000000
 -0.042617  0.042617  0.071028     24.000000
  0.056823 -0.056823 -0.028411     24.000000
  0.042617 -0.042617 -0.014206     24.000000
  0.028411 -0.028411  0.000000     12.000000
  0.000000  0.000000  0.056823      6.000000
 -0.014206  0.014206  0.071028     24.000000
 -0.028411  0.028411  0.085234     24.000000
  0.071028 -0.071028 -0.014206     24.000000
  0.056823 -0.056823  0.000000     12.000000
  0.000000  0.000000  0.085234      6.000000
 -0.014206  0.014206  0.099439     24.000000
  0.085234 -0.085234  0.000000     12.000000
  0.000000  0.000000  0.113645      3.000000
[...]
  -0.37500000  0.12500000  0.00000000       0.047
  -0.25000000  0.12500000  0.00000000       0.047
  -0.12500000  0.12500000  0.00000000       0.023
   0.25000000  0.25000000  0.00000000       0.012
   0.37500000  0.25000000  0.00000000       0.047
   0.50000000  0.25000000  0.00000000       0.047
  -0.37500000  0.25000000  0.00000000       0.047
  -0.25000000  0.25000000  0.00000000       0.023
   0.37500000  0.37500000  0.00000000       0.012
   0.50000000  0.37500000  0.00000000       0.047
  -0.37500000  0.37500000  0.00000000       0.023
   0.50000000  0.50000000  0.00000000       0.006
   0.37500000  0.25000000  0.12500000       0.047
   0.50000000  0.25000000  0.12500000       0.094
  -0.37500000  0.25000000  0.12500000       0.047
   0.50000000  0.37500000  0.12500000       0.047
  -0.37500000  0.37500000  0.12500000       0.094
  -0.25000000  0.37500000  0.12500000       0.047
  -0.37500000  0.50000000  0.12500000       0.023
  -0.25000000  0.50000000  0.25000000       0.012

 position of ions in fractional coordinates (direct lattice)
   0.24999994  0.24999994  0.24999994
   0.00000000  0.00000000  0.00000000
   0.49999989  0.49999989  0.49999989
   0.74999983  0.74999983  0.74999983

 position of ions in cartesian coordinates  (Angst):
   2.19983000  2.19983000  2.19983000
   0.00000000  0.00000000  0.00000000
   4.39966000  4.39966000  4.39966000
   6.59949000  6.59949000  6.59949000

 k-point  1 :   0.0000 0.0000 0.0000  plane waves:    4621
 k-point  2 :   0.1250 0.0000 0.0000  plane waves:    4597
 k-point  3 :   0.2500 0.0000 0.0000  plane waves:    4597
 k-point  4 :   0.3750 0.0000 0.0000  plane waves:    4588
 k-point  5 :   0.5000 0.0000 0.0000  plane waves:    4584
 k-point  6 :   0.1250 0.1250 0.0000  plane waves:    4593
 k-point  7 :   0.2500 0.1250 0.0000  plane waves:    4611
 k-point  8 :   0.3750 0.1250 0.0000  plane waves:    4599
 k-point  9 :   0.5000 0.1250 0.0000  plane waves:    4582
 k-point 10 :  -0.3750 0.1250 0.0000  plane waves:    4580
 k-point 11 :  -0.2500 0.1250 0.0000  plane waves:    4599
 k-point 12 :  -0.1250 0.1250 0.0000  plane waves:    4603
 k-point 13 :   0.2500 0.2500 0.0000  plane waves:    4584
 k-point 14 :   0.3750 0.2500 0.0000  plane waves:    4596
 k-point 15 :   0.5000 0.2500 0.0000  plane waves:    4578
 k-point 16 :  -0.3750 0.2500 0.0000  plane waves:    4574
 k-point 17 :  -0.2500 0.2500 0.0000  plane waves:    4600
 k-point 18 :   0.3750 0.3750 0.0000  plane waves:    4600
 k-point 19 :   0.5000 0.3750 0.0000  plane waves:    4581
 k-point 20 :  -0.3750 0.3750 0.0000  plane waves:    4580
 k-point 21 :   0.5000 0.5000 0.0000  plane waves:    4568
 k-point 22 :   0.3750 0.2500 0.1250  plane waves:    4595
 k-point 23 :   0.5000 0.2500 0.1250  plane waves:    4588
 k-point 24 :  -0.3750 0.2500 0.1250  plane waves:    4562
 k-point 25 :   0.5000 0.3750 0.1250  plane waves:    4599
 k-point 26 :  -0.3750 0.3750 0.1250  plane waves:    4575
 k-point 27 :  -0.2500 0.3750 0.1250  plane waves:    4569
 k-point 28 :  -0.3750 0.5000 0.1250  plane waves:    4580
 k-point 29 :  -0.2500 0.5000 0.2500  plane waves:    4600

 maximum and minimum number of plane-waves per node :       685      645

 maximum number of plane-waves:      4621
 maximum index in each direction:
   IXMAX=   11   IYMAX=   11   IZMAX=   11
   IXMIN=  -12   IYMIN=  -12   IZMIN=  -11

 parallel 3D FFT for wavefunctions:
    minimum data exchange during FFTs selected (reduces bandwidth)
 parallel 3D FFT for charge:
    minimum data exchange during FFTs selected (reduces bandwidth)

 Broyden mixing: mesh for mixing (old mesh)
   NGX = 23   NGY = 23   NGZ = 23
  (NGX  = 96   NGY  = 96   NGZ  = 96)
  gives a total of  12167 points

 initial charge density was supplied:
 charge density of overlapping atoms calculated
 number of electron      42.0000000 magnetization
 keeping initial charge density in first step

 Maximum index for augmentation-charges         4433 (set IRDMAX)

 First call to EWALD:  gamma=   0.320
 Maximum number of real-space cells 3x 3x 3
 Maximum number of reciprocal cells 3x 3x 3

--------------------------------------- Iteration      1(   1)  ---------------------------------------

 eigenvalue-minimisations  :  1450
 total energy-change (2. order) : 0.3902991E+03  (-0.2006454E+04)
 number of electron      42.0000000 magnetization
 augmentation part       42.0000000 magnetization

 Free energy of the ion-electron system (eV)
  alpha Z        PSCENC =       138.98705463
  Ewald energy   TEWEN  =     -2707.82090633
  -Hartree energ DENC   =     -1204.25484682
  -exchange      EXHF   =         0.00000000
  -V(xc)+E(xc)   XCENC  =       148.25506442
  PAW double counting   =      3368.52235606    -3324.32309837
  entropy T*S    EENTRO =        -0.00189609
  eigenvalues    EBANDS =      -200.77850879
  atomic energy  EATOM  =      4171.71390993
  Solvation  Ediel_sol  =         0.00000000
  free energy    TOTEN  =       390.29912864 eV

  energy without entropy =      390.30102473  energy(sigma->0) =      390.30007669

[...]

 eigenvalue-minimisations  :  1640
 total energy-change (2. order) :-0.3667934E+03  (-0.3625716E+03)
 number of electron      42.0000000 magnetization
 augmentation part       42.0000000 magnetization

[...]

 Broyden mixing:
  rms(total) = 0.48933E+00    rms(broyden)= 0.48933E+00
  rms(prec ) = 0.10632E+01
  weight for this iteration     100.00

[...]

 eigenvalues of (default mixing * dielectric matrix)
  average eigenvalue GAMMA=   1.8686
  1.8686

[...]

 average (electrostatic) potential at core
  the test charge radii are     1.0856  1.1045  1.1097
  (the norm of the test charge is              1.0000)
       1-107.6698       2 -36.7329       3 -36.7329       4 -39.1433

 E-fermi :   1.4838     XC(G=0):  -7.5769     alpha+bet : -6.9953

 k-point     1 :       0.0000    0.0000    0.0000
  band No.  band energies     occupation
      1     -29.4663      2.00000
      2     -29.4556      2.00000
      3     -26.8203      2.00000
      4     -19.4617      2.00000
      5     -19.4617      2.00000
      6     -19.4617      2.00000
      7     -19.4557      2.00000
      8     -19.4557      2.00000
      9     -13.0019      2.00000
     10     -13.0019      2.00000
     11     -13.0019      2.00000
     12     -12.9521      2.00000
     13     -12.9521      2.00000
     14     -12.9521      2.00000
     15     -10.9240      2.00000
     16     -10.9240      2.00000
     17     -10.9240      2.00000
     18      -7.4858      2.00000
     19       1.3947      1.98831
     20       1.3947      1.98830
     21       1.3947      1.98830
     22       1.5489      0.06545
     23       4.0105      0.00000
     24       4.0105      0.00000
     25       4.5755      0.00000

[...]

 soft charge-density along one line, spin component           1
         0         1         2         3         4         5         6         7         8         9
 total charge-density along one line

------------------------ aborting loop because EDIFF is reached ----------------------------------------

  FORCE on cell =-STRESS in cart. coord.  units (eV):
  Direction    XX          YY          ZZ          XY          YZ          ZX
  Alpha Z   138.98705   138.98705   138.98705
  Ewald    -902.60773  -902.60773  -902.60773     0.00010     0.00010     0.00010
  Hartree   401.14188   401.14188   401.14188     0.00002     0.00002     0.00002
  E(xc)    -179.13621  -179.13621  -179.13621     0.00000     0.00000     0.00000
  Local     -64.06024   -64.06024   -64.06024    -0.00013    -0.00013    -0.00013
  n-local   -51.24483   -51.45388   -53.03256     1.34553    -1.10627     0.66506
  augment   150.22381   150.22381   150.22381     0.00001     0.00001     0.00001
  Kinetic   508.37425   508.56534   505.41881     2.30364    -1.86993     1.25365
  Fock        0.00000     0.00000     0.00000     0.00000     0.00000     0.00000
  Total       0.09094     0.09094     0.09094     0.00000    -0.00000     0.00000
  in kB       0.85545     0.85545     0.85545     0.00000    -0.00000     0.00000

 VOLUME and BASIS-vectors are now :
  energy-cutoff  :      520.00
  volume of cell :      170.33
      direct lattice vectors                 reciprocal lattice vectors
     0.000000000  4.399661000  4.399661000    -0.113645119  0.113645119  0.113645119
     4.399661000  0.000000000  4.399661000     0.113645119 -0.113645119  0.113645119
     4.399661000  4.399661000  0.000000000     0.113645119  0.113645119 -0.113645119

[...]

 FORCES acting on ions
    electron-ion (+dipol)            ewald-force                    non-local-force                 convergence-correction
   0.230E-03 0.230E-03 0.212E-03   -.478E-04 -.478E-04 -.478E-04   -.424E-21 -.424E-21 0.529E-22   0.130E-05 0.130E-05 0.128E-05
   -.178E-03 -.178E-03 -.190E-03   -.956E-04 -.956E-04 -.956E-04   -.208E-16 -.139E-16 -.173E-16   0.112E-05 0.112E-05 0.112E-05
   0.514E-03 0.514E-03 0.502E-03   0.382E-04 0.382E-04 0.382E-04   0.208E-16 0.156E-16 0.143E-16   -.604E-06 -.604E-06 -.604E-06
   0.759E-03 0.759E-03 0.750E-03   0.105E-03 0.105E-03 0.105E-03   0.000E+00 -.847E-21 0.000E+00   -.121E-05 -.121E-05 -.120E-05
   0.132E-02 0.132E-02 0.128E-02   -.491E-15 0.336E-15 -.632E-15   -.424E-21 0.173E-17 -.304E-17   0.602E-06 0.602E-06 0.592E-06

 POSITION                                       TOTAL-FORCE (eV/Angst)
      2.19983      2.19983      2.19983        -0.000000      0.000000      0.000000
      0.00000      0.00000      0.00000         0.000000      0.000000      0.000000
      4.39966      4.39966      4.39966        -0.000000     -0.000000     -0.000000
      6.59949      6.59949      6.59949         0.000000     -0.000000      0.000000
    total drift:                                0.001325      0.001325      0.001276

  FREE ENERGIE OF THE ION-ELECTRON SYSTEM (eV)
  free  energy   TOTEN  =        -8.36361001 eV

  energy  without entropy=       -8.36358572  energy(sigma->0) =       -8.36359787

[...]

 d Force = 0.0000000E+00[ 0.000E+00, 0.000E+00]  d Energy = 0.2044745E-03-0.204E-03
 d Force = 0.0000000E+00[ 0.000E+00, 0.000E+00]  d Ewald  =-0.2966802E+01 0.297E+01

 Steepest descent step on ions:
 trial-energy change:   -0.000204  1 .order   -0.000165   -0.000299   -0.000032
  (g-gl).g = 0.299E-03      g.g   = 0.299E-03  gl.gl    = 0.000E+00
 g(Force)  = 0.112E-39   g(Stress)= 0.299E-03 ortho     = 0.000E+00
 gamma     =   0.00000
 trial     =   1.00000
 opt step  =   1.11837  (harmonic =   1.11837) maximal distance =0.00000000
 next E    =    -8.363777   (d E  =  -0.00017)

[...]

 eigenvalue-minimisations  :  1805
 total energy-change (2. order) :-0.1527064E-05  (-0.7653432E-05)
 number of electron      41.9999999 magnetization
 augmentation part        8.5476899 magnetization

 Broyden mixing:
  rms(total) = 0.19936E-02    rms(broyden)= 0.19935E-02
  rms(prec ) = 0.23160E-02
  weight for this iteration     100.00

 eigenvalues of (default mixing * dielectric matrix)
  average eigenvalue GAMMA=   1.6752
  1.5095  1.7581  1.7581

[...]

--------------------------------------- Iteration      5(   5)  ---------------------------------------

 eigenvalue-minimisations  :   939
 total energy-change (2. order) : 0.2087930E-05  (-0.1596322E-05)
 number of electron      41.9999999 magnetization
 augmentation part        8.5476899 magnetization

 Free energy of the ion-electron system (eV)
  alpha Z        PSCENC =       138.15409325
  Ewald energy   TEWEN  =     -2702.40066263
  -Hartree energ DENC   =     -1206.80520054
  -exchange      EXHF   =         0.00000000
  -V(xc)+E(xc)   XCENC  =       148.07494045
  PAW double counting   =      3500.33488262    -3459.39762208
  entropy T*S    EENTRO =        -0.00004011
  eigenvalues    EBANDS =      -598.03817903
  atomic energy  EATOM  =      4171.71390993
  Solvation  Ediel_sol  =         0.00000000
  free energy    TOTEN  =        -8.36387815 eV

  energy without entropy =       -8.36383803  energy(sigma->0) =       -8.36385809

 average (electrostatic) potential at core
  the test charge radii are     1.0856  1.1045  1.1097
  (the norm of the test charge is              1.0000)
       1-107.6976       2 -36.7652       3 -36.7652       4 -39.1728

 E-fermi :   1.4545     XC(G=0):  -7.5554     alpha+bet : -6.9534

[...]

 k-point    29 :      -0.2500    0.5000    0.2500
  band No.  band energies     occupation
      1     -29.4924      2.00000
      2     -29.4923      2.00000
      3     -26.8504      2.00000
      4     -19.4894      2.00000
      5     -19.4893      2.00000
      6     -19.4893      2.00000
      7     -19.4839      2.00000
      8     -19.4838      2.00000
      9     -13.0718      2.00000
     10     -13.0471      2.00000
     11     -13.0141      2.00000
     12     -13.0141      2.00000
     13     -12.9656      2.00000
     14     -12.9645      2.00000
     15     -10.9562      2.00000
     16     -10.9562      2.00000
     17     -10.9422      2.00000
     18      -7.4051      2.00000
     19       0.6930      2.00000
     20       0.6930      2.00000
     21       0.9875      2.00000
     22       3.3271      0.00000
     23       4.3311      0.00000
     24       4.3311      0.00000
     25       4.8658      0.00000

 soft charge-density along one line, spin component           1
         0         1         2         3         4         5         6         7         8         9
 total charge-density along one line

------------------------ aborting loop because EDIFF is reached ----------------------------------------

  FORCE on cell =-STRESS in cart. coord.  units (eV):
  Direction    XX          YY          ZZ          XY          YZ          ZX
  Alpha Z   138.15409   138.15409   138.15409
  Ewald    -900.80098  -900.80098  -900.80098     0.00010     0.00010     0.00010
  Hartree   402.25908   402.25908   402.25908     0.00002     0.00002     0.00002
  E(xc)    -179.11559  -179.11559  -179.11559     0.00000     0.00000     0.00000
  Local     -66.11222   -66.11222   -66.11222    -0.00013    -0.00013    -0.00013
  n-local   -51.28614   -51.49322   -53.08167     1.35602    -1.11570     0.67055
  augment   150.22128   150.22128   150.22128     0.00001     0.00001     0.00001
  Kinetic   508.26462   508.45619   505.31369     2.29881    -1.86441     1.24940
  Fock        0.00000     0.00000     0.00000     0.00000     0.00000     0.00000
  Total      -0.00318    -0.00318    -0.00318    -0.00000     0.00000     0.00000
  in kB      -0.02971    -0.02971    -0.02971    -0.00000     0.00000     0.00000

 VOLUME and BASIS-vectors are now :
  energy-cutoff  :      520.00
  volume of cell :      171.36
      direct lattice vectors                 reciprocal lattice vectors
    -0.000000000  4.408485463  4.408485463    -0.113417636  0.113417636  0.113417636
     4.408485463  0.000000000  4.408485463     0.113417636 -0.113417636  0.113417636
     4.408485463  4.408485463 -0.000000000     0.113417636  0.113417636 -0.113417636

  length of vectors
     6.234539931  6.234539931  6.234539931     0.196445108  0.196445108  0.196445108

 FORCES acting on ions
    electron-ion (+dipol)            ewald-force                    non-local-force                 convergence-correction
   0.230E-03 0.230E-03 0.213E-03   -.476E-04 -.476E-04 -.476E-04   0.900E-21 -.582E-21 0.318E-21   0.256E-08 0.256E-08 0.292E-08
   -.179E-03 -.179E-03 -.190E-03   -.952E-04 -.952E-04 -.952E-04   0.121E-16 0.694E-17 -.110E-17   -.786E-08 -.786E-08 -.848E-08
   0.515E-03 0.515E-03 0.504E-03   0.381E-04 0.381E-04 0.381E-04   -.867E-17 -.694E-17 -.324E-17   0.178E-07 0.178E-07 0.172E-07
   0.761E-03 0.761E-03 0.752E-03   0.105E-03 0.105E-03 0.105E-03   0.000E+00 0.424E-21 0.296E-20   0.147E-07 0.147E-07 0.139E-07
   0.133E-02 0.133E-02 0.128E-02   0.858E-15 -.580E-16 0.774E-16   0.347E-17 -.159E-21 -.433E-17   0.272E-07 0.272E-07 0.256E-07

 POSITION                                       TOTAL-FORCE (eV/Angst)
      2.20424      2.20424      2.20424        -0.000000      0.000000      0.000000
      0.00000      0.00000      0.00000         0.000000      0.000000      0.000000
      4.40848      4.40848      4.40848        -0.000000     -0.000000     -0.000000
      6.61273      6.61273      6.61273         0.000000     -0.000000     -0.000000
    total drift:                                0.001328      0.001328      0.001278

  FREE ENERGIE OF THE ION-ELECTRON SYSTEM (eV)
  free  energy   TOTEN  =        -8.36387815 eV

  energy  without entropy=       -8.36383803  energy(sigma->0) =       -8.36385809

 d Force = 0.0000000E+00[ 0.000E+00, 0.000E+00]  d Energy = 0.2821474E-04-0.282E-04
 d Force = 0.0000000E+00[ 0.000E+00, 0.000E+00]  d Ewald  =-0.1401422E+01 0.140E+01

 reached required accuracy - stopping structural energy minimisation