 vasp.5.4.4.18Apr17-6-g9f103f2a35 (build Jun 23 2019 17:35:09) complex

 executed on             LinuxIFC date 2020.01.14  23:08:22

 INCAR:
 POTCAR:    PAW_PBE Bi_d 06Sep2000
 POTCAR:    PAW_PBE K_sv 06Sep2000
 POTCAR:    PAW_PBE Na_pv 19Sep2006

 POTCAR:    PAW_PBE Bi_d 06Sep2000
   VRHFIN =Bi:

   TITEL  = PAW_PBE Bi_d 06Sep2000
   POMASS =  208.980; ZVAL   =   15.000    mass and valenz
   ENMAX  =  242.839; ENMIN  =  182.129 eV

 POTCAR:    PAW_PBE K_sv 06Sep2000
   VRHFIN =K:  3s3p4s

   TITEL  = PAW_PBE K_sv 06Sep2000
   POMASS =   39.098; ZVAL   =    9.000    mass and valenz
   ENMAX  =  259.264; ENMIN  =  194.448 eV

 POTCAR:    PAW_PBE Na_pv 19Sep2006
   VRHFIN =Na: p6s1

   TITEL  = PAW_PBE Na_pv 19Sep2006
   POMASS =   22.990; ZVAL   =    7.000    mass and valenz
   ENMAX  =  259.561; ENMIN  =  194.671 eV

  PAW_PBE Bi_d 06Sep2000                :
  PAW_PBE K_sv 06Sep2000                :
  PAW_PBE Na_pv 19Sep2006               :

 POSCAR: Na K Bi
  positions in direct lattice
 exchange correlation table for  LEXCH =        8
   RHO(1)=    0.500       N(1)  =     2000
   RHO(2)=  100.500       N(2)  =     4000

 ion  position               nearest neighbor table
   1  0.250  0.250  0.250-
   2  0.750  0.750  0.750-
   3  0.000  0.000  0.000-
   4  0.500  0.500  0.500-

  LATTYP: Found a face centered cubic cell.
 ALAT       =     7.8352820000

  Lattice vectors:

 A1 = (   0.0000000000,   3.9176410000,   3.9176410000)
 A2 = (   3.9176410000,   0.0000000000,   3.9176410000)
 A3 = (   3.9176410000,   3.9176410000,   0.0000000000)

Analysis of symmetry for initial positions (statically):
 Subroutine PRICEL returns:
 Original cell was already a primitive cell.

 Routine SETGRP: Setting up the symmetry group for a
 face centered cubic supercell.

 Subroutine GETGRP returns: Found 48 space group operations
 (whereof 24 operations were pure point group operations)
 out of a pool of 48 trial point group operations.

The static configuration has the point symmetry T_d .
 The point group associated with its full space group is O_h .

Analysis of symmetry for dynamics (positions and initial velocities):
 Subroutine PRICEL returns:
 Original cell was already a primitive cell.

 Routine SETGRP: Setting up the symmetry group for a
 face centered cubic supercell.

 Subroutine GETGRP returns: Found 48 space group operations
 (whereof 24 operations were pure point group operations)
 out of a pool of 48 trial point group operations.

The dynamic configuration has the point symmetry T_d .
 The point group associated with its full space group is O_h .

 Subroutine INISYM returns: Found 48 space group operations
 (whereof 24 operations are pure point group operations),
 and found     1 'primitive' translations

 KPOINTS: KPOINTS

Automatic generation of k-mesh.
Space group operators:
 irot       det(A)        alpha          n_x          n_y          n_z        tau_x        tau_y        tau_z
    1     1.000000     0.000000     1.000000     0.000000     0.000000     0.000000     0.000000     0.000000
    2     1.000000   120.000000    -0.577350    -0.577350    -0.577350     0.000000     0.000000     0.000000
    3     1.000000   120.000000     0.577350     0.577350     0.577350     0.000000     0.000000     0.000000
    4    -1.000000    90.000000     0.000000     0.000000    -1.000000     0.000000     0.000000     0.000000
    5    -1.000000   180.000000     0.000000     0.707107     0.707107     0.000000     0.000000     0.000000
    6    -1.000000    90.000000     0.000000     1.000000     0.000000     0.000000     0.000000     0.000000
    7     1.000000   179.999999     0.000000     0.000000     1.000000     0.000000     0.000000     0.000000
    8     1.000000   120.000000    -0.577350     0.577350     0.577350     0.000000     0.000000     0.000000
    9     1.000000   120.000000    -0.577350     0.577350    -0.577350     0.000000     0.000000     0.000000
   10    -1.000000    90.000000     0.000000     0.000000     1.000000     0.000000     0.000000     0.000000
   11    -1.000000    90.000000    -1.000000     0.000000     0.000000     0.000000     0.000000     0.000000
   12    -1.000000   180.000000     0.707107     0.000000     0.707107     0.000000     0.000000     0.000000
   13     1.000000   120.000000     0.577350    -0.577350     0.577350     0.000000     0.000000     0.000000
   14     1.000000   120.000000    -0.577350    -0.577350     0.577350     0.000000     0.000000     0.000000
   15     1.000000   180.000000     1.000000     0.000000     0.000000     0.000000     0.000000     0.000000
   16    -1.000000    90.000000     0.000000    -1.000000     0.000000     0.000000     0.000000     0.000000
   17    -1.000000   180.000000     0.707107     0.707107     0.000000     0.000000     0.000000     0.000000
   18    -1.000000    90.000000     1.000000     0.000000     0.000000     0.000000     0.000000     0.000000
   19     1.000000   120.000000     0.577350    -0.577350    -0.577350     0.000000     0.000000     0.000000
   20     1.000000   180.000000     0.000000     1.000000     0.000000     0.000000     0.000000     0.000000
   21     1.000000   120.000000     0.577350     0.577350    -0.577350     0.000000     0.000000     0.000000
   22    -1.000000   180.000000     0.000000    -0.707107     0.707107     0.000000     0.000000     0.000000
   23    -1.000000   180.000000     0.707107    -0.707107     0.000000     0.000000     0.000000     0.000000
   24    -1.000000   180.000000     0.707107     0.000000    -0.707107     0.000000     0.000000     0.000000
   25    -1.000000     0.000000     1.000000     0.000000     0.000000     0.500000     0.500000     0.500000
   26    -1.000000   120.000000    -0.577350    -0.577350    -0.577350     0.500000     0.500000     0.500000
   27    -1.000000   120.000000     0.577350     0.577350     0.577350     0.500000     0.500000     0.500000
   28     1.000000    90.000000     0.000000     0.000000    -1.000000     0.500000     0.500000     0.500000
   29     1.000000   180.000000     0.000000     0.707107     0.707107     0.500000     0.500000     0.500000
   30     1.000000    90.000000     0.000000     1.000000     0.000000     0.500000     0.500000     0.500000
   31    -1.000000   179.999999     0.000000     0.000000     1.000000     0.500000     0.500000     0.500000
   32    -1.000000   120.000000    -0.577350     0.577350     0.577350     0.500000     0.500000     0.500000
   33    -1.000000   120.000000    -0.577350     0.577350    -0.577350     0.500000     0.500000     0.500000
   34     1.000000    90.000000     0.000000     0.000000     1.000000     0.500000     0.500000     0.500000
   35     1.000000    90.000000    -1.000000     0.000000     0.000000     0.500000     0.500000     0.500000
   36     1.000000   180.000000     0.707107     0.000000     0.707107     0.500000     0.500000     0.500000
   37    -1.000000   120.000000     0.577350    -0.577350     0.577350     0.500000     0.500000     0.500000
   38    -1.000000   120.000000    -0.577350    -0.577350     0.577350     0.500000     0.500000     0.500000
   39    -1.000000   180.000000     1.000000     0.000000     0.000000     0.500000     0.500000     0.500000
   40     1.000000    90.000000     0.000000    -1.000000     0.000000     0.500000     0.500000     0.500000
   41     1.000000   180.000000     0.707107     0.707107     0.000000     0.500000     0.500000     0.500000
   42     1.000000    90.000000     1.000000     0.000000     0.000000     0.500000     0.500000     0.500000
   43    -1.000000   120.000000     0.577350    -0.577350    -0.577350     0.500000     0.500000     0.500000
   44    -1.000000   180.000000     0.000000     1.000000     0.000000     0.500000     0.500000     0.500000
   45    -1.000000   120.000000     0.577350     0.577350    -0.577350     0.500000     0.500000     0.500000
   46     1.000000   180.000000     0.000000    -0.707107     0.707107     0.500000     0.500000     0.500000
   47     1.000000   180.000000     0.707107    -0.707107     0.000000     0.500000     0.500000     0.500000
   48     1.000000   180.000000     0.707107     0.000000    -0.707107     0.500000     0.500000     0.500000

 Subroutine IBZKPT returns following result:

 Found     29 irreducible k-points:

 Following reciprocal coordinates:
            Coordinates               Weight
  0.000000  0.000000  0.000000      1.000000
  0.125000  0.000000  0.000000      8.000000
  0.250000  0.000000  0.000000      8.000000
  0.375000  0.000000  0.000000      8.000000
  0.500000  0.000000  0.000000      4.000000
  0.125000  0.125000  0.000000      6.000000
  0.250000  0.125000  0.000000     24.000000
  0.375000  0.125000  0.000000     24.000000
  0.500000  0.125000  0.000000     24.000000
 -0.375000  0.125000  0.000000     24.000000
 -0.250000  0.125000  0.000000     24.000000
 -0.125000  0.125000  0.000000     12.000000
  0.250000  0.250000  0.000000      6.000000
  0.375000  0.250000  0.000000     24.000000
  0.500000  0.250000  0.000000     24.000000
 -0.375000  0.250000  0.000000     24.000000
 -0.250000  0.250000  0.000000     12.000000
  0.375000  0.375000  0.000000      6.000000
  0.500000  0.375000  0.000000     24.000000
 -0.375000  0.375000  0.000000     12.000000
  0.500000  0.500000  0.000000      3.000000
  0.375000  0.250000  0.125000     24.000000
  0.500000  0.250000  0.125000     48.000000
 -0.375000  0.250000  0.125000     24.000000
  0.500000  0.375000  0.125000     24.000000
 -0.375000  0.375000  0.125000     48.000000
 -0.250000  0.375000  0.125000     24.000000
 -0.375000  0.500000  0.125000     12.000000
 -0.250000  0.500000  0.250000      6.000000

 Following cartesian coordinates:
            Coordinates               Weight
  0.000000  0.000000  0.000000      1.000000
 -0.015953  0.015953  0.015953      8.000000
 -0.031907  0.031907  0.031907      8.000000
 -0.047860  0.047860  0.047860      8.000000
 -0.063814  0.063814  0.063814      4.000000
  0.000000  0.000000  0.031907      6.000000
 -0.015953  0.015953  0.047860     24.000000
 -0.031907  0.031907  0.063814     24.000000
 -0.047860  0.047860  0.079767     24.000000
  0.063814 -0.063814 -0.031907     24.000000
  0.047860 -0.047860 -0.015953     24.000000
  0.031907 -0.031907  0.000000     12.000000
  0.000000  0.000000  0.063814      6.000000
 -0.015953  0.015953  0.079767     24.000000
 -0.031907  0.031907  0.095721     24.000000
  0.079767 -0.079767 -0.015953     24.000000
  0.063814 -0.063814  0.000000     12.000000
  0.000000  0.000000  0.095721      6.000000
 -0.015953  0.015953  0.111674     24.000000
  0.095721 -0.095721  0.000000     12.000000
  0.000000  0.000000  0.127628      3.000000
 -0.000000  0.031907  0.063814     24.000000
 -0.015953  0.047860  0.079767     48.000000
  0.095721 -0.063814 -0.031907     24.000000
 -0.000000  0.031907  0.095721     24.000000
  0.111674 -0.079767 -0.015953     48.000000
  0.095721 -0.063814  0.000000     24.000000
  0.127628 -0.095721  0.000000     12.000000
  0.127628 -0.063814  0.000000      6.000000

 SYSTEM =  unknown system
 POSCAR =  Na K Bi

 Startparameter for this run:
   NWRITE =      2    write-flag & timer
[...]
  -0.25000000  0.12500000  0.00000000       0.047
  -0.12500000  0.12500000  0.00000000       0.023
   0.25000000  0.25000000  0.00000000       0.012
   0.37500000  0.25000000  0.00000000       0.047
   0.50000000  0.25000000  0.00000000       0.047
  -0.37500000  0.25000000  0.00000000       0.047
  -0.25000000  0.25000000  0.00000000       0.023
   0.37500000  0.37500000  0.00000000       0.012
   0.50000000  0.37500000  0.00000000       0.047
  -0.37500000  0.37500000  0.00000000       0.023
   0.50000000  0.50000000  0.00000000       0.006
   0.37500000  0.25000000  0.12500000       0.047
   0.50000000  0.25000000  0.12500000       0.094
  -0.37500000  0.25000000  0.12500000       0.047
   0.50000000  0.37500000  0.12500000       0.047
  -0.37500000  0.37500000  0.12500000       0.094
  -0.25000000  0.37500000  0.12500000       0.047
  -0.37500000  0.50000000  0.12500000       0.023
  -0.25000000  0.50000000  0.25000000       0.012

 position of ions in fractional coordinates (direct lattice)
   0.24999994  0.24999994  0.24999994
   0.74999981  0.74999981  0.74999981
   0.00000000  0.00000000  0.00000000
   0.49999987  0.49999987  0.49999987

 position of ions in cartesian coordinates  (Angst):
   1.95882000  1.95882000  1.95882000
   5.87646000  5.87646000  5.87646000
   0.00000000  0.00000000  0.00000000
   3.91764000  3.91764000  3.91764000

 k-point  1 :   0.0000 0.0000 0.0000  plane waves:    3287
 k-point  2 :   0.1250 0.0000 0.0000  plane waves:    3236
 k-point  3 :   0.2500 0.0000 0.0000  plane waves:    3251
 k-point  4 :   0.3750 0.0000 0.0000  plane waves:    3242
 k-point  5 :   0.5000 0.0000 0.0000  plane waves:    3214
 k-point  6 :   0.1250 0.1250 0.0000  plane waves:    3235
 k-point  7 :   0.2500 0.1250 0.0000  plane waves:    3244
 k-point  8 :   0.3750 0.1250 0.0000  plane waves:    3233
 k-point  9 :   0.5000 0.1250 0.0000  plane waves:    3237
 k-point 10 :  -0.3750 0.1250 0.0000  plane waves:    3230
 k-point 11 :  -0.2500 0.1250 0.0000  plane waves:    3241
 k-point 12 :  -0.1250 0.1250 0.0000  plane waves:    3259
 k-point 13 :   0.2500 0.2500 0.0000  plane waves:    3207
 k-point 14 :   0.3750 0.2500 0.0000  plane waves:    3241
 k-point 15 :   0.5000 0.2500 0.0000  plane waves:    3244
 k-point 16 :  -0.3750 0.2500 0.0000  plane waves:    3225
 k-point 17 :  -0.2500 0.2500 0.0000  plane waves:    3230
 k-point 18 :   0.3750 0.3750 0.0000  plane waves:    3242
 k-point 19 :   0.5000 0.3750 0.0000  plane waves:    3253
 k-point 20 :  -0.3750 0.3750 0.0000  plane waves:    3238
 k-point 21 :   0.5000 0.5000 0.0000  plane waves:    3250
 k-point 22 :   0.3750 0.2500 0.1250  plane waves:    3235
 k-point 23 :   0.5000 0.2500 0.1250  plane waves:    3238
 k-point 24 :  -0.3750 0.2500 0.1250  plane waves:    3238
 k-point 25 :   0.5000 0.3750 0.1250  plane waves:    3238
 k-point 26 :  -0.3750 0.3750 0.1250  plane waves:    3237
 k-point 27 :  -0.2500 0.3750 0.1250  plane waves:    3239
 k-point 28 :  -0.3750 0.5000 0.1250  plane waves:    3236
 k-point 29 :  -0.2500 0.5000 0.2500  plane waves:    3248

 maximum and minimum number of plane-waves per node :       477      445

 maximum number of plane-waves:      3287
 maximum index in each direction:
   IXMAX=   10   IYMAX=   10   IZMAX=   10
   IXMIN=  -10   IYMIN=  -10   IZMIN=  -10

 parallel 3D FFT for wavefunctions:
    minimum data exchange during FFTs selected (reduces bandwidth)
 parallel 3D FFT for charge:
    minimum data exchange during FFTs selected (reduces bandwidth)

 Broyden mixing: mesh for mixing (old mesh)
   NGX = 21   NGY = 21   NGZ = 21
  (NGX  = 84   NGY  = 84   NGZ  = 84)
  gives a total of   9261 points

 initial charge density was supplied:
 charge density of overlapping atoms calculated
 number of electron      38.0000000 magnetization
 keeping initial charge density in first step

 Maximum index for augmentation-charges         3919 (set IRDMAX)

 First call to EWALD:  gamma=   0.359
 Maximum number of real-space cells 3x 3x 3
 Maximum number of reciprocal cells 3x 3x 3

--------------------------------------- Iteration      1(   1)  ---------------------------------------

 eigenvalue-minimisations  :  1342
 total energy-change (2. order) : 0.3855671E+03  (-0.1998671E+04)
 number of electron      38.0000000 magnetization
 augmentation part       38.0000000 magnetization

 Free energy of the ion-electron system (eV)
  alpha Z        PSCENC =       107.19987519
  Ewald energy   TEWEN  =     -2565.77789445
  -Hartree energ DENC   =     -1220.80790265
  -exchange      EXHF   =         0.00000000
  -V(xc)+E(xc)   XCENC  =       133.74438727
  PAW double counting   =      3274.07194199    -3416.58699786
  entropy T*S    EENTRO =        -0.00189141
  eigenvalues    EBANDS =      -192.56419386
  atomic energy  EATOM  =      4266.28978799
  Solvation  Ediel_sol  =         0.00000000
  free energy    TOTEN  =       385.56711220 eV

  energy without entropy =      385.56900362  energy(sigma->0) =      385.56805791

[...]

 eigenvalue-minimisations  :  1341
 total energy-change (2. order) :-0.3622444E+03  (-0.3587857E+03)
 number of electron      38.0000000 magnetization
 augmentation part       38.0000000 magnetization

[...]

 Broyden mixing:
  rms(total) = 0.39592E+00    rms(broyden)= 0.39592E+00
  rms(prec ) = 0.83806E+00
  weight for this iteration     100.00

[...]

 eigenvalues of (default mixing * dielectric matrix)
  average eigenvalue GAMMA=   2.2221
  2.2221

[...]

 average (electrostatic) potential at core
  the test charge radii are     1.0856  1.1045  0.9254
  (the norm of the test charge is              1.0000)
       1-107.0645       2 -35.9933       3 -47.7493       4 -47.7493

 E-fermi :   2.4393     XC(G=0):  -8.1728     alpha+bet : -8.2407

 k-point     1 :       0.0000    0.0000    0.0000
  band No.  band energies     occupation
      1     -28.7331      2.00000
      2     -21.9551      2.00000
      3     -21.9551      2.00000
      4     -21.9551      2.00000
      5     -21.9447      2.00000
      6     -21.9447      2.00000
      7     -21.9447      2.00000
      8     -18.8684      2.00000
      9     -18.8684      2.00000
     10     -18.8684      2.00000
     11     -18.8650      2.00000
     12     -18.8650      2.00000
     13     -12.2545      2.00000
     14     -12.2545      2.00000
     15     -12.2545      2.00000
     16      -7.1713      2.00000
     17       2.4132      1.53846
     18       2.4132      1.53839
     19       2.4132      1.53839
     20       2.4212      1.39099
     21       5.0945      0.00000
     22       5.0945      0.00000
     23       5.0945      0.00000

[...]

 soft charge-density along one line, spin component           1
         0         1         2         3         4         5         6         7         8         9
 total charge-density along one line

------------------------ aborting loop because EDIFF is reached ----------------------------------------

  FORCE on cell =-STRESS in cart. coord.  units (eV):
  Direction    XX          YY          ZZ          XY          YZ          ZX
  Alpha Z   107.19988   107.19988   107.19988
  Ewald    -855.25998  -855.25998  -855.25998     0.00010     0.00010     0.00010
  Hartree   404.96369   404.96369   404.96369     0.00006     0.00006     0.00006
  E(xc)    -185.73744  -185.73744  -185.73744     0.00003     0.00003     0.00003
  Local     -63.32818   -63.32818   -63.32818    -0.00022    -0.00022    -0.00022
  n-local     5.79286     6.02190     2.87639     1.85310    -1.41590     0.74858
  augment   226.64627   226.64627   226.64627     0.00006     0.00006     0.00006
  Kinetic   362.16624   362.18205   359.64801     3.04006    -1.92342     1.33235
  Fock        0.00000     0.00000     0.00000     0.00000     0.00000     0.00000
  Total       0.71338     0.71338     0.71338     0.00000     0.00000     0.00000
  in kB       9.50449     9.50449     9.50449     0.00000     0.00000     0.00000

 VOLUME and BASIS-vectors are now :
  energy-cutoff  :      520.00
  volume of cell :      120.26
      direct lattice vectors                 reciprocal lattice vectors
     0.000000000  3.917641000  3.917641000    -0.127627825  0.127627825  0.127627825
     3.917641000  0.000000000  3.917641000     0.127627825 -0.127627825  0.127627825
     3.917641000  3.917641000  0.000000000     0.127627825  0.127627825 -0.127627825

[...]

 FORCES acting on ions
    electron-ion (+dipol)            ewald-force                    non-local-force                 convergence-correction
   0.242E-03 0.242E-03 0.221E-03   -.677E-04 -.677E-04 -.677E-04   0.000E+00 0.635E-21 -.424E-21   0.200E-05 0.200E-05 0.203E-05
   0.829E-03 0.829E-03 0.819E-03   0.131E-03 0.131E-03 0.131E-03   0.169E-20 0.000E+00 0.000E+00   -.400E-05 -.400E-05 -.401E-05
   -.145E-04 -.145E-04 -.140E-04   -.983E-04 -.983E-04 -.983E-04   -.121E-16 -.104E-16 -.117E-16   0.141E-05 0.141E-05 0.141E-05
   0.123E-03 0.123E-03 0.124E-03   0.351E-04 0.351E-04 0.351E-04   0.139E-16 0.121E-16 0.135E-16   0.181E-06 0.181E-06 0.178E-06
   0.118E-02 0.118E-02 0.115E-02   -.536E-16 0.139E-14 0.108E-14   0.174E-17 0.174E-17 0.173E-17   -.403E-06 -.403E-06 -.395E-06

 POSITION                                       TOTAL-FORCE (eV/Angst)
      1.95882      1.95882      1.95882        -0.000000      0.000000     -0.000000
      5.87646      5.87646      5.87646         0.000000     -0.000000      0.000000
      0.00000      0.00000      0.00000        -0.000000     -0.000000      0.000000
      3.91764      3.91764      3.91764        -0.000000      0.000000     -0.000000
    total drift:                                0.001180      0.001180      0.001149

  FREE ENERGIE OF THE ION-ELECTRON SYSTEM (eV)
  free  energy   TOTEN  =        -9.12880704 eV

  energy  without entropy=       -9.12863101  energy(sigma->0) =       -9.12871902

[...]

 d Force = 0.0000000E+00[ 0.000E+00, 0.000E+00]  d Energy = 0.1279806E-01-0.128E-01
 d Force = 0.0000000E+00[ 0.000E+00, 0.000E+00]  d Ewald  =-0.2188727E+02 0.219E+02

 Steepest descent step on ions:
 trial-energy change:   -0.012798  1 .order   -0.013323   -0.018413   -0.008233
  (g-gl).g = 0.184E-01      g.g   = 0.184E-01  gl.gl    = 0.000E+00
 g(Force)  = 0.113E-40   g(Stress)= 0.184E-01 ortho     = 0.000E+00
 gamma     =   0.00000
 trial     =   1.00000
 opt step  =   1.80866  (harmonic =   1.80866) maximal distance =0.00000000
 next E    =    -9.145459   (d E  =  -0.01665)

[...]

 d Force = 0.0000000E+00[ 0.000E+00, 0.000E+00]  d Energy =-0.1225309E-04 0.123E-04
 d Force = 0.0000000E+00[ 0.000E+00, 0.000E+00]  d Ewald  = 0.1117424E+01-0.112E+01

[...]

 eigenvalue-minimisations  :  1628
 total energy-change (2. order) :-0.1382597E-03  (-0.3544202E-03)
 number of electron      37.9999981 magnetization
 augmentation part       16.2364233 magnetization

[...]

 Broyden mixing:
  rms(total) = 0.75954E-03    rms(broyden)= 0.75954E-03
  rms(prec ) = 0.84389E-03
  weight for this iteration     100.00

 eigenvalues of (default mixing * dielectric matrix)
  average eigenvalue GAMMA=   1.7500
  2.4532  1.3985  1.3985

[...]

--------------------------------------- Iteration      6(   5)  ---------------------------------------

 eigenvalue-minimisations  :   667
 total energy-change (2. order) : 0.1259806E-05  (-0.1857747E-06)
 number of electron      37.9999981 magnetization
 augmentation part       16.2338305 magnetization

 Free energy of the ion-electron system (eV)
  alpha Z        PSCENC =       102.11721323
  Ewald energy   TEWEN  =     -2524.56922660
  -Hartree energ DENC   =     -1240.91664183
  -exchange      EXHF   =         0.00000000
  -V(xc)+E(xc)   XCENC  =       133.43987958
  PAW double counting   =      3381.05264173    -3526.70195486
  entropy T*S    EENTRO =        -0.00015863
  eigenvalues    EBANDS =      -599.85681949
  atomic energy  EATOM  =      4266.28978799
  Solvation  Ediel_sol  =         0.00000000
  free energy    TOTEN  =        -9.14527889 eV

  energy without entropy =       -9.14512026  energy(sigma->0) =       -9.14519957

 average (electrostatic) potential at core
  the test charge radii are     1.0856  1.1045  0.9254
  (the norm of the test charge is              1.0000)
       1-107.3379       2 -36.2916       3 -48.0461       4 -48.0461

 E-fermi :   2.1703     XC(G=0):  -7.9942     alpha+bet : -7.8500

[...]

 k-point    29 :      -0.2500    0.5000    0.2500
  band No.  band energies     occupation
      1     -29.0240      2.00000
      2     -22.2510      2.00000
      3     -22.2500      2.00000
      4     -22.2450      2.00000
      5     -22.2450      2.00000
      6     -22.2395      2.00000
      7     -22.2392      2.00000
      8     -19.1374      2.00000
      9     -19.1374      2.00000
     10     -19.1366      2.00000
     11     -19.1338      2.00000
     12     -19.1337      2.00000
     13     -12.5481      2.00000
     14     -12.5481      2.00000
     15     -12.5440      2.00000
     16      -7.1480      2.00000
     17       0.6128      2.00000
     18       0.6128      2.00000
     19       1.0228      2.00000
     20       4.9341      0.00000
     21       5.2868      0.00000
     22       5.2868      0.00000
     23       5.5006      0.00000

 soft charge-density along one line, spin component           1
         0         1         2         3         4         5         6         7         8         9
 total charge-density along one line

------------------------ aborting loop because EDIFF is reached ----------------------------------------

  FORCE on cell =-STRESS in cart. coord.  units (eV):
  Direction    XX          YY          ZZ          XY          YZ          ZX
  Alpha Z   102.11721   102.11721   102.11721
  Ewald    -841.52375  -841.52375  -841.52375     0.00010     0.00010     0.00010
  Hartree   413.63694   413.63694   413.63694     0.00006     0.00006     0.00006
  E(xc)    -185.55904  -185.55904  -185.55904     0.00004     0.00004     0.00004
  Local     -80.23402   -80.23402   -80.23402    -0.00022    -0.00022    -0.00022
  n-local     5.22408     5.48133     2.26476     1.91685    -1.46016     0.77446
  augment   226.66844   226.66844   226.66844     0.00004     0.00004     0.00004
  Kinetic   361.40792   361.42626   358.88827     2.93777    -1.84524     1.27159
  Fock        0.00000     0.00000     0.00000     0.00000     0.00000     0.00000
  Total       0.00333     0.00333     0.00333    -0.00000    -0.00000     0.00000
  in kB       0.04232     0.04232     0.04232    -0.00000    -0.00000     0.00000

 VOLUME and BASIS-vectors are now :
  energy-cutoff  :      520.00
  volume of cell :      126.24
      direct lattice vectors                 reciprocal lattice vectors
     0.000000000  3.981588847  3.981588847    -0.125578009  0.125578009  0.125578009
     3.981588847  0.000000000  3.981588847     0.125578009 -0.125578009  0.125578009
     3.981588847  3.981588847  0.000000000     0.125578009  0.125578009 -0.125578009

  length of vectors
     5.630816947  5.630816947  5.630816947     0.217507492  0.217507492  0.217507492

 FORCES acting on ions
    electron-ion (+dipol)            ewald-force                    non-local-force                 convergence-correction
   0.247E-03 0.247E-03 0.225E-03   -.656E-04 -.656E-04 -.656E-04   0.159E-21 0.159E-21 0.827E-23   -.830E-09 -.830E-09 -.685E-11
   0.851E-03 0.851E-03 0.839E-03   0.127E-03 0.127E-03 0.127E-03   0.254E-20 0.847E-21 0.000E+00   0.219E-07 0.219E-07 0.210E-07
   -.176E-04 -.176E-04 -.175E-04   -.952E-04 -.952E-04 -.952E-04   0.104E-16 0.867E-17 0.957E-17   0.363E-09 0.363E-09 0.188E-09
   0.129E-03 0.129E-03 0.129E-03   0.340E-04 0.340E-04 0.340E-04   -.121E-16 -.121E-16 -.797E-17   -.174E-08 -.174E-08 -.192E-08
   0.121E-02 0.121E-02 0.118E-02   -.498E-15 0.812E-15 -.623E-16   -.173E-17 -.347E-17 0.160E-17   0.197E-07 0.197E-07 0.193E-07

 POSITION                                       TOTAL-FORCE (eV/Angst)
      1.99079      1.99079      1.99079        -0.000000     -0.000000      0.000000
      5.97238      5.97238      5.97238         0.000000     -0.000000     -0.000000
     -0.00000     -0.00000      0.00000        -0.000000      0.000000     -0.000000
      3.98159      3.98159      3.98159        -0.000000      0.000000      0.000000
    total drift:                                0.001209      0.001209      0.001175

  FREE ENERGIE OF THE ION-ELECTRON SYSTEM (eV)
  free  energy   TOTEN  =        -9.14527889 eV

  energy  without entropy=       -9.14512026  energy(sigma->0) =       -9.14519957

 d Force = 0.0000000E+00[ 0.000E+00, 0.000E+00]  d Energy = 0.8408187E-05-0.841E-05
 d Force = 0.0000000E+00[ 0.000E+00, 0.000E+00]  d Ewald  =-0.5225484E+00 0.523E+00

 reached required accuracy - stopping structural energy minimisation