 vasp.5.4.4.18Apr17-6-g9f103f2a35 (build Jun 23 2019 17:35:09) complex

 executed on             LinuxIFC date 2020.01.15  15:38:50

 INCAR:
 POTCAR:    PAW_PBE Bi_d 06Sep2000
 POTCAR:    PAW_PBE K_sv 06Sep2000
 POTCAR:    PAW_PBE Rb_sv 06Sep2000

 POTCAR:    PAW_PBE Bi_d 06Sep2000
   VRHFIN =Bi:

   TITEL  = PAW_PBE Bi_d 06Sep2000
   POMASS =  208.980; ZVAL   =   15.000    mass and valenz
   ENMAX  =  242.839; ENMIN  =  182.129 eV

 POTCAR:    PAW_PBE K_sv 06Sep2000
   VRHFIN =K:  3s3p4s

   TITEL  = PAW_PBE K_sv 06Sep2000
   POMASS =   39.098; ZVAL   =    9.000    mass and valenz
   ENMAX  =  259.264; ENMIN  =  194.448 eV

 POTCAR:    PAW_PBE Rb_sv 06Sep2000
   VRHFIN =Rb: 4s4p5s

   TITEL  = PAW_PBE Rb_sv 06Sep2000
   POMASS =   85.468; ZVAL   =    9.000    mass and valenz
   ENMAX  =  220.112; ENMIN  =  165.084 eV

  PAW_PBE Bi_d 06Sep2000                :
  PAW_PBE K_sv 06Sep2000                :
  PAW_PBE Rb_sv 06Sep2000               :

 POSCAR: K Bi Rb
  positions in direct lattice
  velocities in cartesian coordinates
 exchange correlation table for  LEXCH =        8
   RHO(1)=    0.500       N(1)  =     2000
   RHO(2)=  100.500       N(2)  =     4000

 ion  position               nearest neighbor table
   1  0.250  0.250  0.250-   2 3.82   3 3.82   3 3.82   3 3.82   3 3.82   2 3.82   2 3.82   2 3.82
                             4 4.41   4 4.41   4 4.41   4 4.41   4 4.41   4 4.41
   2  0.000  0.000  0.000-   1 3.82   4 3.82   4 3.82   4 3.82   1 3.82   1 3.82   1 3.82   4 3.82

   3  0.500  0.500  0.500-   4 3.82   1 3.82   1 3.82   1 3.82   1 3.82   4 3.82   4 3.82   4 3.82

   4  0.750  0.750  0.750-   3 3.82   2 3.82   2 3.82   2 3.82   3 3.82   3 3.82   3 3.82   2 3.82
                             1 4.41   1 4.41   1 4.41   1 4.41   1 4.41   1 4.41

  LATTYP: Found a face centered cubic cell.
 ALAT       =     8.8169709261

  Lattice vectors:

 A1 = (   0.0000000000,   4.4084854631,   4.4084854631)
 A2 = (   4.4084854631,   0.0000000000,   4.4084854631)
 A3 = (   4.4084854631,   4.4084854631,   0.0000000000)

Analysis of symmetry for initial positions (statically):
 Subroutine PRICEL returns:
 Original cell was already a primitive cell.

 Routine SETGRP: Setting up the symmetry group for a
 face centered cubic supercell.

 Subroutine GETGRP returns: Found 48 space group operations
 (whereof 24 operations were pure point group operations)
 out of a pool of 48 trial point group operations.

The static configuration has the point symmetry T_d .
 The point group associated with its full space group is O_h .

Analysis of symmetry for dynamics (positions and initial velocities):
 Subroutine PRICEL returns:
 Original cell was already a primitive cell.

 Routine SETGRP: Setting up the symmetry group for a
 face centered cubic supercell.

 Subroutine GETGRP returns: Found 48 space group operations
 (whereof 24 operations were pure point group operations)
 out of a pool of 48 trial point group operations.

The dynamic configuration has the point symmetry T_d .
 The point group associated with its full space group is O_h .

 Subroutine INISYM returns: Found 48 space group operations
 (whereof 24 operations are pure point group operations),
 and found     1 'primitive' translations

 KPOINTS: KPOINTS

Automatic generation of k-mesh.
Space group operators:
 irot       det(A)        alpha          n_x          n_y          n_z        tau_x        tau_y        tau_z
    1     1.000000     0.000000     1.000000     0.000000     0.000000     0.000000     0.000000     0.000000
    2     1.000000   120.000000    -0.577350    -0.577350    -0.577350     0.000000     0.000000     0.000000
    3     1.000000   120.000000     0.577350     0.577350     0.577350     0.000000     0.000000     0.000000
    4    -1.000000    90.000000     0.000000     0.000000    -1.000000     0.000000     0.000000     0.000000
    5    -1.000000   180.000000     0.000000     0.707107     0.707107     0.000000     0.000000     0.000000
    6    -1.000000    90.000000     0.000000     1.000000     0.000000     0.000000     0.000000     0.000000
    7     1.000000   180.000000     0.000000     0.000000     1.000000     0.000000     0.000000     0.000000
    8     1.000000   120.000000    -0.577350     0.577350     0.577350     0.000000     0.000000     0.000000
    9     1.000000   120.000000    -0.577350     0.577350    -0.577350     0.000000     0.000000     0.000000
   10    -1.000000    90.000000     0.000000     0.000000     1.000000     0.000000     0.000000     0.000000
   11    -1.000000    90.000000    -1.000000     0.000000     0.000000     0.000000     0.000000     0.000000
   12    -1.000000   180.000000     0.707107     0.000000     0.707107     0.000000     0.000000     0.000000
   13     1.000000   120.000000     0.577350    -0.577350     0.577350     0.000000     0.000000     0.000000
   14     1.000000   120.000000    -0.577350    -0.577350     0.577350     0.000000     0.000000     0.000000
   15     1.000000   180.000000     1.000000     0.000000     0.000000     0.000000     0.000000     0.000000
   16    -1.000000    90.000000     0.000000    -1.000000     0.000000     0.000000     0.000000     0.000000
   17    -1.000000   180.000000     0.707107     0.707107     0.000000     0.000000     0.000000     0.000000
   18    -1.000000    90.000000     1.000000     0.000000     0.000000     0.000000     0.000000     0.000000
   19     1.000000   120.000000     0.577350    -0.577350    -0.577350     0.000000     0.000000     0.000000
   20     1.000000   180.000000     0.000000     1.000000     0.000000     0.000000     0.000000     0.000000
   21     1.000000   120.000000     0.577350     0.577350    -0.577350     0.000000     0.000000     0.000000
   22    -1.000000   180.000000     0.000000    -0.707107     0.707107     0.000000     0.000000     0.000000
   23    -1.000000   180.000000     0.707107    -0.707107     0.000000     0.000000     0.000000     0.000000
   24    -1.000000   180.000000     0.707107     0.000000    -0.707107     0.000000     0.000000     0.000000
   25    -1.000000     0.000000     1.000000     0.000000     0.000000     0.500000     0.500000     0.500000
   26    -1.000000   120.000000    -0.577350    -0.577350    -0.577350     0.500000     0.500000     0.500000
   27    -1.000000   120.000000     0.577350     0.577350     0.577350     0.500000     0.500000     0.500000
   28     1.000000    90.000000     0.000000     0.000000    -1.000000     0.500000     0.500000     0.500000
   29     1.000000   180.000000     0.000000     0.707107     0.707107     0.500000     0.500000     0.500000
   30     1.000000    90.000000     0.000000     1.000000     0.000000     0.500000     0.500000     0.500000
   31    -1.000000   180.000000     0.000000     0.000000     1.000000     0.500000     0.500000     0.500000
   32    -1.000000   120.000000    -0.577350     0.577350     0.577350     0.500000     0.500000     0.500000
   33    -1.000000   120.000000    -0.577350     0.577350    -0.577350     0.500000     0.500000     0.500000
   34     1.000000    90.000000     0.000000     0.000000     1.000000     0.500000     0.500000     0.500000
   35     1.000000    90.000000    -1.000000     0.000000     0.000000     0.500000     0.500000     0.500000
   36     1.000000   180.000000     0.707107     0.000000     0.707107     0.500000     0.500000     0.500000
   37    -1.000000   120.000000     0.577350    -0.577350     0.577350     0.500000     0.500000     0.500000
   38    -1.000000   120.000000    -0.577350    -0.577350     0.577350     0.500000     0.500000     0.500000
   39    -1.000000   180.000000     1.000000     0.000000     0.000000     0.500000     0.500000     0.500000
   40     1.000000    90.000000     0.000000    -1.000000     0.000000     0.500000     0.500000     0.500000
   41     1.000000   180.000000     0.707107     0.707107     0.000000     0.500000     0.500000     0.500000
   42     1.000000    90.000000     1.000000     0.000000     0.000000     0.500000     0.500000     0.500000
   43    -1.000000   120.000000     0.577350    -0.577350    -0.577350     0.500000     0.500000     0.500000
   44    -1.000000   180.000000     0.000000     1.000000     0.000000     0.500000     0.500000     0.500000
   45    -1.000000   120.000000     0.577350     0.577350    -0.577350     0.500000     0.500000     0.500000
   46     1.000000   180.000000     0.000000    -0.707107     0.707107     0.500000     0.500000     0.500000
   47     1.000000   180.000000     0.707107    -0.707107     0.000000     0.500000     0.500000     0.500000
   48     1.000000   180.000000     0.707107     0.000000    -0.707107     0.500000     0.500000     0.500000

 Subroutine IBZKPT returns following result:

 Found     29 irreducible k-points:

 Following reciprocal coordinates:
            Coordinates               Weight
  0.000000  0.000000  0.000000      1.000000
  0.125000  0.000000  0.000000      8.000000
  0.250000  0.000000  0.000000      8.000000
  0.375000  0.000000  0.000000      8.000000
  0.500000  0.000000  0.000000      4.000000
  0.125000  0.125000  0.000000      6.000000
  0.250000  0.125000  0.000000     24.000000
  0.375000  0.125000  0.000000     24.000000
  0.500000  0.125000  0.000000     24.000000
 -0.375000  0.125000  0.000000     24.000000
 -0.250000  0.125000  0.000000     24.000000
 -0.125000  0.125000  0.000000     12.000000
  0.250000  0.250000  0.000000      6.000000
  0.375000  0.250000  0.000000     24.000000
  0.500000  0.250000  0.000000     24.000000
 -0.375000  0.250000  0.000000     24.000000
 -0.250000  0.250000  0.000000     12.000000
  0.375000  0.375000  0.000000      6.000000
  0.500000  0.375000  0.000000     24.000000
 -0.375000  0.375000  0.000000     12.000000
  0.500000  0.500000  0.000000      3.000000
  0.375000  0.250000  0.125000     24.000000
  0.500000  0.250000  0.125000     48.000000
 -0.375000  0.250000  0.125000     24.000000
  0.500000  0.375000  0.125000     24.000000
 -0.375000  0.375000  0.125000     48.000000
 -0.250000  0.375000  0.125000     24.000000
 -0.375000  0.500000  0.125000     12.000000
 -0.250000  0.500000  0.250000      6.000000

 Following cartesian coordinates:
            Coordinates               Weight
  0.000000  0.000000  0.000000      1.000000
 -0.014177  0.014177  0.014177      8.000000
 -0.028354  0.028354  0.028354      8.000000
 -0.042532  0.042532  0.042532      8.000000
 -0.056709  0.056709  0.056709      4.000000
  0.000000  0.000000  0.028354      6.000000
 -0.014177  0.014177  0.042532     24.000000
 -0.028354  0.028354  0.056709     24.000000
 -0.042532  0.042532  0.070886     24.000000
  0.056709 -0.056709 -0.028354     24.000000
  0.042532 -0.042532 -0.014177     24.000000
  0.028354 -0.028354  0.000000     12.000000
  0.000000  0.000000  0.056709      6.000000
 -0.014177  0.014177  0.070886     24.000000
 -0.028354  0.028354  0.085063     24.000000
  0.070886 -0.070886 -0.014177     24.000000
  0.056709 -0.056709  0.000000     12.000000
  0.000000  0.000000  0.085063      6.000000
 -0.014177  0.014177  0.099240     24.000000
  0.085063 -0.085063  0.000000     12.000000
[...]

 Linear response parameters
   LEPSILON=     F    determine dielectric tensor
   LRPA    =     F    only Hartree local field effects (RPA)
   LNABLA  =     F    use nabla operator in PAW spheres
   LVEL    =     F    velocity operator in full k-point grid
   LINTERFAST=   F  fast interpolation
   KINTER  =     0    interpolate to denser k-point grid
   CSHIFT  =0.1000    complex shift for real part using Kramers Kronig
   OMEGAMAX=  -1.0    maximum frequency
   DEG_THRESHOLD= 0.2000000E-02 threshold for treating states as degnerate
   RTIME   =   -0.100 relaxation time in fs
  (WPLASMAI=    0.000 imaginary part of plasma frequency in eV, 0.658/RTIME)
   DFIELD  = 0.0000000 0.0000000 0.0000000 field for delta impulse in time

 Orbital magnetization related:
   ORBITALMAG=     F  switch on orbital magnetization
   LCHIMAG   =     F  perturbation theory with respect to B field
   DQ        =  0.001000  dq finite difference perturbation B field
   LLRAUG    =     F  two centre corrections for induced B field

 Static calculation
 charge density and potential will be updated during run
 non-spin polarized calculation
 Variant of blocked Davidson
 Davidson routine will perform the subspace rotation
 perform sub-space diagonalisation
    after iterative eigenvector-optimisation
 modified Broyden-mixing scheme, WC =      100.0
 initial mixing is a Kerker type mixing with AMIX =  0.4000 and BMIX =      1.0000
 Hartree-type preconditioning will be used
 using additional bands            4
 reciprocal scheme for non local part
 use partial core corrections
 calculate Harris-corrections to forces
   (improved forces if not selfconsistent)
 use gradient corrections
 use of overlap-Matrix (Vanderbilt PP)
 Gauss-broadening in eV      SIGMA  =   0.05

  energy-cutoff  :      520.00
  volume of cell :      171.36
      direct lattice vectors                 reciprocal lattice vectors
     0.000000000  4.408485463  4.408485463    -0.113417636  0.113417636  0.113417636
     4.408485463  0.000000000  4.408485463     0.113417636 -0.113417636  0.113417636
     4.408485463  4.408485463  0.000000000     0.113417636  0.113417636 -0.113417636

  length of vectors
     6.234539931  6.234539931  6.234539931     0.196445108  0.196445108  0.196445108

 k-points in units of 2pi/SCALE and weight: KPOINTS
   0.00000000  0.00000000  0.00000000       0.002
  -0.01417720  0.01417720  0.01417720       0.016
  -0.02835441  0.02835441  0.02835441       0.016
  -0.04253161  0.04253161  0.04253161       0.016
  -0.05670882  0.05670882  0.05670882       0.008
   0.00000000  0.00000000  0.02835441       0.012
  -0.01417720  0.01417720  0.04253161       0.047
  -0.02835441  0.02835441  0.05670882       0.047
  -0.04253161  0.04253161  0.07088602       0.047
   0.05670882 -0.05670882 -0.02835441       0.047
   0.04253161 -0.04253161 -0.01417720       0.047
   0.02835441 -0.02835441  0.00000000       0.023
   0.00000000  0.00000000  0.05670882       0.012
  -0.01417720  0.01417720  0.07088602       0.047
  -0.02835441  0.02835441  0.08506323       0.047
   0.07088602 -0.07088602 -0.01417720       0.047
   0.05670882 -0.05670882  0.00000000       0.023
   0.00000000  0.00000000  0.08506323       0.012
  -0.01417720  0.01417720  0.09924043       0.047
   0.08506323 -0.08506323  0.00000000       0.023
   0.00000000  0.00000000  0.11341764       0.006
  -0.00000000  0.02835441  0.05670882       0.047
  -0.01417720  0.04253161  0.07088602       0.094
   0.08506323 -0.05670882 -0.02835441       0.047
   0.00000000  0.02835441  0.08506323       0.047
   0.09924043 -0.07088602 -0.01417720       0.094
   0.08506323 -0.05670882  0.00000000       0.047
   0.11341764 -0.08506323 -0.00000000       0.023
   0.11341764 -0.05670882  0.00000000       0.012

 k-points in reciprocal lattice and weights: KPOINTS
   0.00000000  0.00000000  0.00000000       0.002
   0.12500000  0.00000000  0.00000000       0.016
   0.25000000  0.00000000  0.00000000       0.016
   0.37500000  0.00000000  0.00000000       0.016
   0.50000000  0.00000000  0.00000000       0.008
   0.12500000  0.12500000  0.00000000       0.012
   0.25000000  0.12500000  0.00000000       0.047
   0.37500000  0.12500000  0.00000000       0.047
   0.50000000  0.12500000  0.00000000       0.047
  -0.37500000  0.12500000  0.00000000       0.047
  -0.25000000  0.12500000  0.00000000       0.047
  -0.12500000  0.12500000  0.00000000       0.023
   0.25000000  0.25000000  0.00000000       0.012
   0.37500000  0.25000000  0.00000000       0.047
   0.50000000  0.25000000  0.00000000       0.047
  -0.37500000  0.25000000  0.00000000       0.047
  -0.25000000  0.25000000  0.00000000       0.023
   0.37500000  0.37500000  0.00000000       0.012
   0.50000000  0.37500000  0.00000000       0.047
  -0.37500000  0.37500000  0.00000000       0.023
   0.50000000  0.50000000  0.00000000       0.006
   0.37500000  0.25000000  0.12500000       0.047
   0.50000000  0.25000000  0.12500000       0.094
  -0.37500000  0.25000000  0.12500000       0.047
   0.50000000  0.37500000  0.12500000       0.047
  -0.37500000  0.37500000  0.12500000       0.094
  -0.25000000  0.37500000  0.12500000       0.047
  -0.37500000  0.50000000  0.12500000       0.023
  -0.25000000  0.50000000  0.25000000       0.012

 position of ions in fractional coordinates (direct lattice)
   0.24999994  0.24999994  0.24999994
   0.00000000  0.00000000  0.00000000
   0.49999989  0.49999989  0.49999989
   0.74999983  0.74999983  0.74999983

 position of ions in cartesian coordinates  (Angst):
   2.20424223  2.20424223  2.20424223
   0.00000000  0.00000000  0.00000000
   4.40848446  4.40848446  4.40848446
   6.61272669  6.61272669  6.61272669

 k-point  1 :   0.0000 0.0000 0.0000  plane waves:    4645
 k-point  2 :   0.1250 0.0000 0.0000  plane waves:    4618
 k-point  3 :   0.2500 0.0000 0.0000  plane waves:    4633
 k-point  4 :   0.3750 0.0000 0.0000  plane waves:    4618
 k-point  5 :   0.5000 0.0000 0.0000  plane waves:    4626
 k-point  6 :   0.1250 0.1250 0.0000  plane waves:    4633
 k-point  7 :   0.2500 0.1250 0.0000  plane waves:    4630
 k-point  8 :   0.3750 0.1250 0.0000  plane waves:    4617
 k-point  9 :   0.5000 0.1250 0.0000  plane waves:    4615
 k-point 10 :  -0.3750 0.1250 0.0000  plane waves:    4617
 k-point 11 :  -0.2500 0.1250 0.0000  plane waves:    4628
 k-point 12 :  -0.1250 0.1250 0.0000  plane waves:    4627
 k-point 13 :   0.2500 0.2500 0.0000  plane waves:    4632
 k-point 14 :   0.3750 0.2500 0.0000  plane waves:    4623
 k-point 15 :   0.5000 0.2500 0.0000  plane waves:    4617
 k-point 16 :  -0.3750 0.2500 0.0000  plane waves:    4593
 k-point 17 :  -0.2500 0.2500 0.0000  plane waves:    4632
 k-point 18 :   0.3750 0.3750 0.0000  plane waves:    4636
 k-point 19 :   0.5000 0.3750 0.0000  plane waves:    4614
 k-point 20 :  -0.3750 0.3750 0.0000  plane waves:    4604
 k-point 21 :   0.5000 0.5000 0.0000  plane waves:    4568
 k-point 22 :   0.3750 0.2500 0.1250  plane waves:    4624
 k-point 23 :   0.5000 0.2500 0.1250  plane waves:    4608
 k-point 24 :  -0.3750 0.2500 0.1250  plane waves:    4602
 k-point 25 :   0.5000 0.3750 0.1250  plane waves:    4621
 k-point 26 :  -0.3750 0.3750 0.1250  plane waves:    4607
 k-point 27 :  -0.2500 0.3750 0.1250  plane waves:    4585
 k-point 28 :  -0.3750 0.5000 0.1250  plane waves:    4616
 k-point 29 :  -0.2500 0.5000 0.2500  plane waves:    4600

 maximum and minimum number of plane-waves per node :       687      646

 maximum number of plane-waves:      4645
 maximum index in each direction:
   IXMAX=   11   IYMAX=   11   IZMAX=   11
   IXMIN=  -12   IYMIN=  -12   IZMIN=  -11

 parallel 3D FFT for wavefunctions:
    minimum data exchange during FFTs selected (reduces bandwidth)
 parallel 3D FFT for charge:
    minimum data exchange during FFTs selected (reduces bandwidth)

 Broyden mixing: mesh for mixing (old mesh)
   NGX = 23   NGY = 23   NGZ = 23
  (NGX  = 96   NGY  = 96   NGZ  = 96)
  gives a total of  12167 points

 initial charge density was supplied:
 charge density of overlapping atoms calculated
 number of electron      42.0000000 magnetization
 keeping initial charge density in first step

 Maximum index for augmentation-charges         4421 (set IRDMAX)

 First call to EWALD:  gamma=   0.319
 Maximum number of real-space cells 3x 3x 3
 Maximum number of reciprocal cells 3x 3x 3

--------------------------------------- Iteration      1(   1)  ---------------------------------------

 eigenvalue-minimisations  :  1450
 total energy-change (2. order) : 0.3873064E+03  (-0.2024811E+04)
 number of electron      42.0000000 magnetization
 augmentation part       42.0000000 magnetization

 Free energy of the ion-electron system (eV)
  alpha Z        PSCENC =       138.15409325
  Ewald energy   TEWEN  =     -2702.40066263
  -Hartree energ DENC   =     -1207.57179819
  -exchange      EXHF   =         0.00000000
  -V(xc)+E(xc)   XCENC  =       148.22473519
  PAW double counting   =      3368.52235606    -3324.32309837
  entropy T*S    EENTRO =        -0.00259712
  eigenvalues    EBANDS =      -205.01057849
  atomic energy  EATOM  =      4171.71390993
  Solvation  Ediel_sol  =         0.00000000
  free energy    TOTEN  =       387.30635963 eV

  energy without entropy =      387.30895676  energy(sigma->0) =      387.30765820

[...]

 eigenvalue-minimisations  :  1600
 total energy-change (2. order) :-0.3625678E+03  (-0.3584962E+03)
 number of electron      42.0000000 magnetization
 augmentation part       42.0000000 magnetization

[...]

 Broyden mixing:
  rms(total) = 0.48490E+00    rms(broyden)= 0.48490E+00
  rms(prec ) = 0.10606E+01
  weight for this iteration     100.00

[...]

 eigenvalues of (default mixing * dielectric matrix)
  average eigenvalue GAMMA=   1.8502
  1.8502

[...]

 eigenvalue-minimisations  :  1257
 total energy-change (2. order) :-0.1935132E-07  (-0.7163816E-10)
 number of electron      41.9999999 magnetization
 augmentation part        8.5483284 magnetization

 Broyden mixing:
  rms(total) = 0.47663E-05    rms(broyden)= 0.47663E-05
  rms(prec ) = 0.80830E-05
  weight for this iteration     100.00

 eigenvalues of (default mixing * dielectric matrix)
  average eigenvalue GAMMA=   1.7694
  3.2393  2.7983  2.7983  2.3509  1.9908  1.8843  1.1150  1.1150  1.1525  0.9814
  0.9037  0.9037

[...]

--------------------------------------- Iteration      1(  18)  ---------------------------------------

 eigenvalue-minimisations  :  1078
 total energy-change (2. order) : 0.1377884E-08  (-0.6012594E-10)
 number of electron      41.9999999 magnetization
 augmentation part        8.5483284 magnetization

 Free energy of the ion-electron system (eV)
  alpha Z        PSCENC =       138.15409325
  Ewald energy   TEWEN  =     -2702.40066263
  -Hartree energ DENC   =     -1206.78656764
  -exchange      EXHF   =         0.00000000
  -V(xc)+E(xc)   XCENC  =       148.07412244
  PAW double counting   =      3500.09811533    -3459.16819018
  entropy T*S    EENTRO =        -0.00003977
  eigenvalues    EBANDS =      -598.04884231
  atomic energy  EATOM  =      4171.71390993
  Solvation  Ediel_sol  =         0.00000000
  free energy    TOTEN  =        -8.36406158 eV

  energy without entropy =       -8.36402181  energy(sigma->0) =       -8.36404169

 average (electrostatic) potential at core
  the test charge radii are     1.0856  1.1045  1.1097
  (the norm of the test charge is              1.0000)
       1-107.6990       2 -36.7655       3 -36.7655       4 -39.1729

 E-fermi :   1.4544     XC(G=0):  -7.5554     alpha+bet : -6.9534

 k-point     1 :       0.0000    0.0000    0.0000
  band No.  band energies     occupation
      1     -29.4979      2.00000
      2     -29.4875      2.00000
      3     -26.8495      2.00000
      4     -19.4904      2.00000
      5     -19.4904      2.00000
      6     -19.4904      2.00000
      7     -19.4846      2.00000
      8     -19.4846      2.00000
      9     -13.0323      2.00000
     10     -13.0323      2.00000
     11     -13.0323      2.00000
     12     -12.9833      2.00000
     13     -12.9833      2.00000
     14     -12.9833      2.00000
     15     -10.9527      2.00000
     16     -10.9527      2.00000
     17     -10.9527      2.00000
     18      -7.5081      2.00000
     19       1.3719      1.98037
     20       1.3719      1.98036
     21       1.3719      1.98036
     22       1.5101      0.11523
     23       3.9888      0.00000
     24       3.9888      0.00000
     25       4.5412      0.00000

[...]

 k-point    29 :      -0.2500    0.5000    0.2500
  band No.  band energies     occupation
      1     -29.4924      2.00000
      2     -29.4924      2.00000
      3     -26.8502      2.00000
      4     -19.4901      2.00000
      5     -19.4900      2.00000
      6     -19.4900      2.00000
      7     -19.4846      2.00000
      8     -19.4845      2.00000
      9     -13.0719      2.00000
     10     -13.0472      2.00000
     11     -13.0143      2.00000
     12     -13.0143      2.00000
     13     -12.9658      2.00000
     14     -12.9646      2.00000
     15     -10.9562      2.00000
     16     -10.9562      2.00000
     17     -10.9422      2.00000
     18      -7.4057      2.00000
     19       0.6929      2.00000
     20       0.6929      2.00000
     21       0.9873      2.00000
     22       3.3271      0.00000
     23       4.3311      0.00000
     24       4.3311      0.00000
     25       4.8657      0.00000

 soft charge-density along one line, spin component           1
         0         1         2         3         4         5         6         7         8         9
 total charge-density along one line

------------------------ aborting loop because EDIFF is reached ----------------------------------------

  FORCE on cell =-STRESS in cart. coord.  units (eV):
  Direction    XX          YY          ZZ          XY          YZ          ZX
  Alpha Z   138.15409   138.15409   138.15409
  Ewald    -900.80098  -900.80098  -900.80098     0.00010     0.00010     0.00010
  Hartree   402.26220   402.26220   402.26220     0.00002     0.00002     0.00002
  E(xc)    -179.11476  -179.11476  -179.11476     0.00000     0.00000     0.00000
  Local     -66.12357   -66.12357   -66.12357    -0.00013    -0.00013    -0.00013
  n-local   -51.26025   -51.46735   -53.05580     1.35600    -1.11573     0.67062
  augment   150.22756   150.22756   150.22756     0.00001     0.00001     0.00001
  Kinetic   508.25066   508.44221   505.29987     2.29870    -1.86431     1.24931
  Fock        0.00000     0.00000     0.00000     0.00000     0.00000     0.00000
  Total       0.00765     0.00765     0.00765     0.00000     0.00000    -0.00000
  in kB       0.07156     0.07156     0.07156     0.00000     0.00000    -0.00000

 VOLUME and BASIS-vectors are now :
  energy-cutoff  :      520.00
  volume of cell :      171.36
      direct lattice vectors                 reciprocal lattice vectors
     0.000000000  4.408485463  4.408485463    -0.113417636  0.113417636  0.113417636
     4.408485463  0.000000000  4.408485463     0.113417636 -0.113417636  0.113417636
     4.408485463  4.408485463  0.000000000     0.113417636  0.113417636 -0.113417636

  length of vectors
     6.234539931  6.234539931  6.234539931     0.196445108  0.196445108  0.196445108

 FORCES acting on ions
    electron-ion (+dipol)            ewald-force                    non-local-force                 convergence-correction
   0.230E-03 0.230E-03 0.213E-03   -.476E-04 -.476E-04 -.476E-04   -.529E-22 0.159E-21 0.529E-21   0.653E-07 0.653E-07 0.644E-07
   -.179E-03 -.179E-03 -.190E-03   -.952E-04 -.952E-04 -.952E-04   -.867E-17 0.000E+00 -.824E-17   0.411E-07 0.411E-07 0.411E-07
   0.515E-03 0.515E-03 0.504E-03   0.381E-04 0.381E-04 0.381E-04   0.867E-17 0.000E+00 0.716E-17   -.305E-07 -.305E-07 -.305E-07
   0.761E-03 0.761E-03 0.752E-03   0.105E-03 0.105E-03 0.105E-03   -.127E-20 -.847E-21 0.424E-21   -.440E-07 -.440E-07 -.436E-07
   0.133E-02 0.133E-02 0.128E-02   0.859E-15 -.580E-16 0.774E-16   -.132E-20 -.688E-21 -.108E-17   0.319E-07 0.319E-07 0.315E-07

 POSITION                                       TOTAL-FORCE (eV/Angst)
      2.20424      2.20424      2.20424        -0.000000      0.000000     -0.000000
      0.00000      0.00000      0.00000         0.000000      0.000000      0.000000
      4.40848      4.40848      4.40848        -0.000000     -0.000000     -0.000000
      6.61273      6.61273      6.61273        -0.000000     -0.000000     -0.000000
    total drift:                                0.001328      0.001328      0.001278

  FREE ENERGIE OF THE ION-ELECTRON SYSTEM (eV)
  free  energy   TOTEN  =        -8.36406158 eV

  energy  without entropy=       -8.36402181  energy(sigma->0) =       -8.36404169