 vasp.5.4.4.18Apr17-6-g9f103f2a35 (build Jun 23 2019 17:35:09) complex

 executed on             LinuxIFC date 2020.01.14  23:10:29

 INCAR:
 POTCAR:    PAW_PBE Bi_d 06Sep2000
 POTCAR:    PAW_PBE Na_pv 19Sep2006
 POTCAR:    PAW_PBE Rb_sv 06Sep2000

 POTCAR:    PAW_PBE Bi_d 06Sep2000
   VRHFIN =Bi:

   TITEL  = PAW_PBE Bi_d 06Sep2000
   POMASS =  208.980; ZVAL   =   15.000    mass and valenz
   ENMAX  =  242.839; ENMIN  =  182.129 eV

 POTCAR:    PAW_PBE Na_pv 19Sep2006
   VRHFIN =Na: p6s1

   TITEL  = PAW_PBE Na_pv 19Sep2006
   POMASS =   22.990; ZVAL   =    7.000    mass and valenz
   ENMAX  =  259.561; ENMIN  =  194.671 eV

 POTCAR:    PAW_PBE Rb_sv 06Sep2000
   VRHFIN =Rb: 4s4p5s

   TITEL  = PAW_PBE Rb_sv 06Sep2000
   POMASS =   85.468; ZVAL   =    9.000    mass and valenz
   ENMAX  =  220.112; ENMIN  =  165.084 eV

  PAW_PBE Bi_d 06Sep2000                :
  PAW_PBE Na_pv 19Sep2006               :
  PAW_PBE Rb_sv 06Sep2000               :

 POSCAR: Na Bi Rb
  positions in direct lattice
 exchange correlation table for  LEXCH =        8
   RHO(1)=    0.500       N(1)  =     2000
   RHO(2)=  100.500       N(2)  =     4000

 ion  position               nearest neighbor table
   1  0.250  0.250  0.250-   4 4.00   4 4.00   4 4.00   4 4.00   4 4.00   4 4.00
   2  0.000  0.000  0.000-   4 3.46   4 3.46   4 3.46   4 3.46
   3  0.500  0.500  0.500-   4 3.46   4 3.46   4 3.46   4 3.46
   4  0.750  0.750  0.750-   3 3.46   2 3.46   2 3.46   2 3.46   3 3.46   3 3.46   3 3.46   2 3.46
                             1 4.00   1 4.00   1 4.00   1 4.00   1 4.00   1 4.00

  LATTYP: Found a face centered cubic cell.
 ALAT       =     7.9967140000

  Lattice vectors:

 A1 = (   0.0000000000,   3.9983570000,   3.9983570000)
 A2 = (   3.9983570000,   0.0000000000,   3.9983570000)
 A3 = (   3.9983570000,   3.9983570000,   0.0000000000)

Analysis of symmetry for initial positions (statically):
 Subroutine PRICEL returns:
 Original cell was already a primitive cell.

 Routine SETGRP: Setting up the symmetry group for a
 face centered cubic supercell.

 Subroutine GETGRP returns: Found 48 space group operations
 (whereof 24 operations were pure point group operations)
 out of a pool of 48 trial point group operations.

The static configuration has the point symmetry T_d .
 The point group associated with its full space group is O_h .

Analysis of symmetry for dynamics (positions and initial velocities):
 Subroutine PRICEL returns:
 Original cell was already a primitive cell.

 Routine SETGRP: Setting up the symmetry group for a
 face centered cubic supercell.

 Subroutine GETGRP returns: Found 48 space group operations
 (whereof 24 operations were pure point group operations)
 out of a pool of 48 trial point group operations.

The dynamic configuration has the point symmetry T_d .
 The point group associated with its full space group is O_h .

 Subroutine INISYM returns: Found 48 space group operations
 (whereof 24 operations are pure point group operations),
 and found     1 'primitive' translations

 KPOINTS: KPOINTS

Automatic generation of k-mesh.
Space group operators:
 irot       det(A)        alpha          n_x          n_y          n_z        tau_x        tau_y        tau_z
    1     1.000000     0.000000     1.000000     0.000000     0.000000     0.000000     0.000000     0.000000
    2     1.000000   120.000000    -0.577350    -0.577350    -0.577350     0.000000     0.000000     0.000000
    3     1.000000   120.000000     0.577350     0.577350     0.577350     0.000000     0.000000     0.000000
    4    -1.000000    90.000000     0.000000     0.000000    -1.000000     0.000000     0.000000     0.000000
    5    -1.000000   180.000000     0.000000     0.707107     0.707107     0.000000     0.000000     0.000000
    6    -1.000000    90.000000     0.000000     1.000000     0.000000     0.000000     0.000000     0.000000
    7     1.000000   180.000000     0.000000     0.000000     1.000000     0.000000     0.000000     0.000000
    8     1.000000   120.000000    -0.577350     0.577350     0.577350     0.000000     0.000000     0.000000
    9     1.000000   120.000000    -0.577350     0.577350    -0.577350     0.000000     0.000000     0.000000
   10    -1.000000    90.000000     0.000000     0.000000     1.000000     0.000000     0.000000     0.000000
   11    -1.000000    90.000000    -1.000000     0.000000     0.000000     0.000000     0.000000     0.000000
   12    -1.000000   180.000000     0.707107     0.000000     0.707107     0.000000     0.000000     0.000000
   13     1.000000   120.000000     0.577350    -0.577350     0.577350     0.000000     0.000000     0.000000
   14     1.000000   120.000000    -0.577350    -0.577350     0.577350     0.000000     0.000000     0.000000
   15     1.000000   180.000000     1.000000     0.000000     0.000000     0.000000     0.000000     0.000000
   16    -1.000000    90.000000     0.000000    -1.000000     0.000000     0.000000     0.000000     0.000000
   17    -1.000000   180.000000     0.707107     0.707107     0.000000     0.000000     0.000000     0.000000
   18    -1.000000    90.000000     1.000000     0.000000     0.000000     0.000000     0.000000     0.000000
   19     1.000000   120.000000     0.577350    -0.577350    -0.577350     0.000000     0.000000     0.000000
   20     1.000000   180.000000     0.000000     1.000000     0.000000     0.000000     0.000000     0.000000
   21     1.000000   120.000000     0.577350     0.577350    -0.577350     0.000000     0.000000     0.000000
   22    -1.000000   180.000000     0.000000    -0.707107     0.707107     0.000000     0.000000     0.000000
   23    -1.000000   180.000000     0.707107    -0.707107     0.000000     0.000000     0.000000     0.000000
   24    -1.000000   180.000000     0.707107     0.000000    -0.707107     0.000000     0.000000     0.000000
   25    -1.000000     0.000000     1.000000     0.000000     0.000000     0.500000     0.500000     0.500000
   26    -1.000000   120.000000    -0.577350    -0.577350    -0.577350     0.500000     0.500000     0.500000
   27    -1.000000   120.000000     0.577350     0.577350     0.577350     0.500000     0.500000     0.500000
   28     1.000000    90.000000     0.000000     0.000000    -1.000000     0.500000     0.500000     0.500000
   29     1.000000   180.000000     0.000000     0.707107     0.707107     0.500000     0.500000     0.500000
   30     1.000000    90.000000     0.000000     1.000000     0.000000     0.500000     0.500000     0.500000
   31    -1.000000   180.000000     0.000000     0.000000     1.000000     0.500000     0.500000     0.500000
   32    -1.000000   120.000000    -0.577350     0.577350     0.577350     0.500000     0.500000     0.500000
   33    -1.000000   120.000000    -0.577350     0.577350    -0.577350     0.500000     0.500000     0.500000
   34     1.000000    90.000000     0.000000     0.000000     1.000000     0.500000     0.500000     0.500000
   35     1.000000    90.000000    -1.000000     0.000000     0.000000     0.500000     0.500000     0.500000
   36     1.000000   180.000000     0.707107     0.000000     0.707107     0.500000     0.500000     0.500000
   37    -1.000000   120.000000     0.577350    -0.577350     0.577350     0.500000     0.500000     0.500000
   38    -1.000000   120.000000    -0.577350    -0.577350     0.577350     0.500000     0.500000     0.500000
   39    -1.000000   180.000000     1.000000     0.000000     0.000000     0.500000     0.500000     0.500000
   40     1.000000    90.000000     0.000000    -1.000000     0.000000     0.500000     0.500000     0.500000
   41     1.000000   180.000000     0.707107     0.707107     0.000000     0.500000     0.500000     0.500000
   42     1.000000    90.000000     1.000000     0.000000     0.000000     0.500000     0.500000     0.500000
   43    -1.000000   120.000000     0.577350    -0.577350    -0.577350     0.500000     0.500000     0.500000
   44    -1.000000   180.000000     0.000000     1.000000     0.000000     0.500000     0.500000     0.500000
   45    -1.000000   120.000000     0.577350     0.577350    -0.577350     0.500000     0.500000     0.500000
   46     1.000000   180.000000     0.000000    -0.707107     0.707107     0.500000     0.500000     0.500000
   47     1.000000   180.000000     0.707107    -0.707107     0.000000     0.500000     0.500000     0.500000
   48     1.000000   180.000000     0.707107     0.000000    -0.707107     0.500000     0.500000     0.500000

 Subroutine IBZKPT returns following result:

 Found     29 irreducible k-points:

 Following reciprocal coordinates:
            Coordinates               Weight
  0.000000  0.000000  0.000000      1.000000
  0.125000  0.000000  0.000000      8.000000
  0.250000  0.000000  0.000000      8.000000
  0.375000  0.000000  0.000000      8.000000
  0.500000  0.000000  0.000000      4.000000
  0.125000  0.125000  0.000000      6.000000
  0.250000  0.125000  0.000000     24.000000
  0.375000  0.125000  0.000000     24.000000
  0.500000  0.125000  0.000000     24.000000
 -0.375000  0.125000  0.000000     24.000000
 -0.250000  0.125000  0.000000     24.000000
 -0.125000  0.125000  0.000000     12.000000
  0.250000  0.250000  0.000000      6.000000
  0.375000  0.250000  0.000000     24.000000
  0.500000  0.250000  0.000000     24.000000
 -0.375000  0.250000  0.000000     24.000000
 -0.250000  0.250000  0.000000     12.000000
  0.375000  0.375000  0.000000      6.000000
  0.500000  0.375000  0.000000     24.000000
 -0.375000  0.375000  0.000000     12.000000
  0.500000  0.500000  0.000000      3.000000
  0.375000  0.250000  0.125000     24.000000
  0.500000  0.250000  0.125000     48.000000
 -0.375000  0.250000  0.125000     24.000000
  0.500000  0.375000  0.125000     24.000000
 -0.375000  0.375000  0.125000     48.000000
 -0.250000  0.375000  0.125000     24.000000
 -0.375000  0.500000  0.125000     12.000000
 -0.250000  0.500000  0.250000      6.000000

 Following cartesian coordinates:
            Coordinates               Weight
  0.000000  0.000000  0.000000      1.000000
 -0.015631  0.015631  0.015631      8.000000
 -0.031263  0.031263  0.031263      8.000000
 -0.046894  0.046894  0.046894      8.000000
 -0.062526  0.062526  0.062526      4.000000
  0.000000  0.000000  0.031263      6.000000
 -0.015631  0.015631  0.046894     24.000000
 -0.031263  0.031263  0.062526     24.000000
 -0.046894  0.046894  0.078157     24.000000
  0.062526 -0.062526 -0.031263     24.000000
  0.046894 -0.046894 -0.015631     24.000000
  0.031263 -0.031263  0.000000     12.000000
  0.000000  0.000000  0.062526      6.000000
 -0.015631  0.015631  0.078157     24.000000
 -0.031263  0.031263  0.093789     24.000000
  0.078157 -0.078157 -0.015631     24.000000
  0.062526 -0.062526  0.000000     12.000000
  0.000000  0.000000  0.093789      6.000000
 -0.015631  0.015631  0.109420     24.000000
  0.093789 -0.093789  0.000000     12.000000
  0.000000  0.000000  0.125051      3.000000
  0.000000  0.031263  0.062526     24.000000
 -0.015631  0.046894  0.078157     48.000000
  0.093789 -0.062526 -0.031263     24.000000
  0.000000  0.031263  0.093789     24.000000
[...]
   0.50000000  0.50000000  0.00000000       0.006
   0.37500000  0.25000000  0.12500000       0.047
   0.50000000  0.25000000  0.12500000       0.094
  -0.37500000  0.25000000  0.12500000       0.047
   0.50000000  0.37500000  0.12500000       0.047
  -0.37500000  0.37500000  0.12500000       0.094
  -0.25000000  0.37500000  0.12500000       0.047
  -0.37500000  0.50000000  0.12500000       0.023
  -0.25000000  0.50000000  0.25000000       0.012

 position of ions in fractional coordinates (direct lattice)
   0.25000019  0.25000019  0.25000019
   0.00000000  0.00000000  0.00000000
   0.50000038  0.50000038  0.50000038
   0.74999931  0.74999931  0.74999931

 position of ions in cartesian coordinates  (Angst):
   1.99918000  1.99918000  1.99918000
   0.00000000  0.00000000  0.00000000
   3.99836000  3.99836000  3.99836000
   5.99753000  5.99753000  5.99753000

 k-point  1 :   0.0000 0.0000 0.0000  plane waves:    3479
 k-point  2 :   0.1250 0.0000 0.0000  plane waves:    3461
 k-point  3 :   0.2500 0.0000 0.0000  plane waves:    3437
 k-point  4 :   0.3750 0.0000 0.0000  plane waves:    3446
 k-point  5 :   0.5000 0.0000 0.0000  plane waves:    3444
 k-point  6 :   0.1250 0.1250 0.0000  plane waves:    3459
 k-point  7 :   0.2500 0.1250 0.0000  plane waves:    3457
 k-point  8 :   0.3750 0.1250 0.0000  plane waves:    3452
 k-point  9 :   0.5000 0.1250 0.0000  plane waves:    3446
 k-point 10 :  -0.3750 0.1250 0.0000  plane waves:    3443
 k-point 11 :  -0.2500 0.1250 0.0000  plane waves:    3445
 k-point 12 :  -0.1250 0.1250 0.0000  plane waves:    3451
 k-point 13 :   0.2500 0.2500 0.0000  plane waves:    3479
 k-point 14 :   0.3750 0.2500 0.0000  plane waves:    3450
 k-point 15 :   0.5000 0.2500 0.0000  plane waves:    3430
 k-point 16 :  -0.3750 0.2500 0.0000  plane waves:    3446
 k-point 17 :  -0.2500 0.2500 0.0000  plane waves:    3445
 k-point 18 :   0.3750 0.3750 0.0000  plane waves:    3439
 k-point 19 :   0.5000 0.3750 0.0000  plane waves:    3430
 k-point 20 :  -0.3750 0.3750 0.0000  plane waves:    3430
 k-point 21 :   0.5000 0.5000 0.0000  plane waves:    3442
 k-point 22 :   0.3750 0.2500 0.1250  plane waves:    3456
 k-point 23 :   0.5000 0.2500 0.1250  plane waves:    3446
 k-point 24 :  -0.3750 0.2500 0.1250  plane waves:    3442
 k-point 25 :   0.5000 0.3750 0.1250  plane waves:    3439
 k-point 26 :  -0.3750 0.3750 0.1250  plane waves:    3432
 k-point 27 :  -0.2500 0.3750 0.1250  plane waves:    3445
 k-point 28 :  -0.3750 0.5000 0.1250  plane waves:    3422
 k-point 29 :  -0.2500 0.5000 0.2500  plane waves:    3400

 maximum and minimum number of plane-waves per node :       511      478

 maximum number of plane-waves:      3479
 maximum index in each direction:
   IXMAX=   10   IYMAX=   10   IZMAX=   10
   IXMIN=  -11   IYMIN=  -11   IZMIN=  -10

 parallel 3D FFT for wavefunctions:
    minimum data exchange during FFTs selected (reduces bandwidth)
 parallel 3D FFT for charge:
    minimum data exchange during FFTs selected (reduces bandwidth)

 Broyden mixing: mesh for mixing (old mesh)
   NGX = 21   NGY = 21   NGZ = 21
  (NGX  = 84   NGY  = 84   NGZ  = 84)
  gives a total of   9261 points

 initial charge density was supplied:
 charge density of overlapping atoms calculated
 number of electron      38.0000000 magnetization
 keeping initial charge density in first step

 Maximum index for augmentation-charges         3727 (set IRDMAX)

 First call to EWALD:  gamma=   0.352
 Maximum number of real-space cells 3x 3x 3
 Maximum number of reciprocal cells 3x 3x 3

--------------------------------------- Iteration      1(   1)  ---------------------------------------

 eigenvalue-minimisations  :  1350
 total energy-change (2. order) : 0.3748387E+03  (-0.1961523E+04)
 number of electron      38.0000000 magnetization
 augmentation part       38.0000000 magnetization

 Free energy of the ion-electron system (eV)
  alpha Z        PSCENC =       111.46983113
  Ewald energy   TEWEN  =     -2513.98178706
  -Hartree energ DENC   =     -1177.44443738
  -exchange      EXHF   =         0.00000000
  -V(xc)+E(xc)   XCENC  =       127.24542746
  PAW double counting   =      3185.16912008    -3328.20531600
  entropy T*S    EENTRO =        -0.00172549
  eigenvalues    EBANDS =      -183.19977552
  atomic energy  EATOM  =      4153.78731487
  Solvation  Ediel_sol  =         0.00000000
  free energy    TOTEN  =       374.83865208 eV

  energy without entropy =      374.84037757  energy(sigma->0) =      374.83951483

[...]

 eigenvalue-minimisations  :  1355
 total energy-change (2. order) :-0.3478576E+03  (-0.3437000E+03)
 number of electron      38.0000000 magnetization
 augmentation part       38.0000000 magnetization

[...]

 Broyden mixing:
  rms(total) = 0.36843E+00    rms(broyden)= 0.36842E+00
  rms(prec ) = 0.85536E+00
  weight for this iteration     100.00

[...]

 eigenvalues of (default mixing * dielectric matrix)
  average eigenvalue GAMMA=   2.2196
  2.2196

[...]

 average (electrostatic) potential at core
  the test charge radii are     1.0856  0.9254  1.1097
  (the norm of the test charge is              1.0000)
       1-107.0739       2 -47.9257       3 -47.9258       4 -37.6450

 E-fermi :   2.4136     XC(G=0):  -8.1186     alpha+bet : -8.1156

 k-point     1 :       0.0000    0.0000    0.0000
  band No.  band energies     occupation
      1     -25.3593      2.00000
      2     -22.1287      2.00000
      3     -22.1287      2.00000
      4     -22.1287      2.00000
      5     -22.1206      2.00000
      6     -22.1206      2.00000
      7     -22.1206      2.00000
      8     -18.8740      2.00000
      9     -18.8740      2.00000
     10     -18.8740      2.00000
     11     -18.8727      2.00000
     12     -18.8727      2.00000
     13      -9.5115      2.00000
     14      -9.5115      2.00000
     15      -9.5115      2.00000
     16      -7.1116      2.00000
     17       2.3475      1.93842
     18       2.3973      1.35474
     19       2.3973      1.35474
     20       2.3973      1.35452
     21       4.7699      0.00000
     22       4.7699      0.00000
     23       4.7699      0.00000

[...]

 soft charge-density along one line, spin component           1
         0         1         2         3         4         5         6         7         8         9
 total charge-density along one line

------------------------ aborting loop because EDIFF is reached ----------------------------------------

  FORCE on cell =-STRESS in cart. coord.  units (eV):
  Direction    XX          YY          ZZ          XY          YZ          ZX
  Alpha Z   111.46983   111.46983   111.46983
  Ewald    -837.99460  -837.99460  -837.99460    -0.00029    -0.00029    -0.00029
  Hartree   391.07395   391.07395   391.07395    -0.00017    -0.00017    -0.00017
  E(xc)    -180.69917  -180.69917  -180.69917     0.00004     0.00004     0.00004
  Local     -82.61884   -82.61884   -82.61884     0.00040     0.00040     0.00040
  n-local    18.08364    18.40219    15.37199     1.78465    -1.43099     0.78855
  augment   217.27538   217.27538   217.27538     0.00004     0.00004     0.00004
  Kinetic   365.63542   365.34651   363.43804     3.18904    -2.12977     1.47722
  Fock        0.00000     0.00000     0.00000     0.00000     0.00000     0.00000
  Total       0.59914     0.59914     0.59914    -0.00000     0.00000    -0.00000
  in kB       7.50874     7.50874     7.50874    -0.00000     0.00000    -0.00000

 VOLUME and BASIS-vectors are now :
  energy-cutoff  :      520.00
  volume of cell :      127.84
      direct lattice vectors                 reciprocal lattice vectors
     0.000000000  3.998357000  3.998357000    -0.125051365  0.125051365  0.125051365
     3.998357000  0.000000000  3.998357000     0.125051365 -0.125051365  0.125051365
     3.998357000  3.998357000  0.000000000     0.125051365  0.125051365 -0.125051365

[...]

 FORCES acting on ions
    electron-ion (+dipol)            ewald-force                    non-local-force                 convergence-correction
   -.719E-03 -.719E-03 -.672E-03   -.446E-03 -.446E-03 -.446E-03   -.635E-21 -.233E-20 -.254E-20   0.145E-04 0.145E-04 0.147E-04
   0.648E-04 0.648E-04 0.604E-04   -.198E-04 -.198E-04 -.198E-04   0.520E-17 -.347E-17 0.445E-17   0.128E-05 0.128E-05 0.128E-05
   -.373E-03 -.373E-03 -.378E-03   -.396E-03 -.396E-03 -.396E-03   -.867E-17 0.347E-17 -.607E-17   0.320E-05 0.320E-05 0.320E-05
   0.363E-02 0.363E-02 0.367E-02   0.862E-03 0.862E-03 0.862E-03   -.152E-19 -.847E-20 0.678E-20   -.125E-04 -.125E-04 -.126E-04
   0.261E-02 0.261E-02 0.268E-02   -.271E-15 -.490E-15 -.403E-15   -.349E-17 -.108E-19 -.162E-17   0.653E-05 0.653E-05 0.659E-05

 POSITION                                       TOTAL-FORCE (eV/Angst)
      1.99918      1.99918      1.99918         0.000000      0.000000     -0.000000
      0.00000      0.00000      0.00000         0.000000      0.000000      0.000000
      3.99836      3.99836      3.99836         0.000000      0.000000     -0.000000
      5.99753      5.99753      5.99753        -0.000000     -0.000000     -0.000000
    total drift:                                0.002612      0.002612      0.002684

  FREE ENERGIE OF THE ION-ELECTRON SYSTEM (eV)
  free  energy   TOTEN  =        -8.89269270 eV

  energy  without entropy=       -8.89253375  energy(sigma->0) =       -8.89261322

[...]

 d Force = 0.0000000E+00[ 0.000E+00, 0.000E+00]  d Energy = 0.9385476E-02-0.939E-02
 d Force = 0.0000000E+00[ 0.000E+00, 0.000E+00]  d Ewald  =-0.1803589E+02 0.180E+02

 Steepest descent step on ions:
 trial-energy change:   -0.009385  1 .order   -0.009848   -0.012988   -0.006708
  (g-gl).g = 0.130E-01      g.g   = 0.130E-01  gl.gl    = 0.000E+00
 g(Force)  = 0.189E-39   g(Stress)= 0.130E-01 ortho     = 0.000E+00
 gamma     =   0.00000
 trial     =   1.00000
 opt step  =   2.06825  (harmonic =   2.06825) maximal distance =0.00000000
 next E    =    -8.906124   (d E  =  -0.01343)

[...]

 d Force = 0.0000000E+00[ 0.000E+00, 0.000E+00]  d Energy = 0.1354517E-04-0.135E-04
 d Force = 0.0000000E+00[ 0.000E+00, 0.000E+00]  d Ewald  = 0.5064421E+00-0.506E+00

[...]

 d Force = 0.0000000E+00[ 0.000E+00, 0.000E+00]  d Energy =-0.6191998E-03 0.619E-03
 d Force = 0.0000000E+00[ 0.000E+00, 0.000E+00]  d Ewald  = 0.9204046E+01-0.920E+01

[...]

 d Force = 0.0000000E+00[ 0.000E+00, 0.000E+00]  d Energy = 0.3534005E-06-0.353E-06
 d Force = 0.0000000E+00[ 0.000E+00, 0.000E+00]  d Ewald  = 0.4302406E+00-0.430E+00

[...]

 d Force = 0.0000000E+00[ 0.000E+00, 0.000E+00]  d Energy = 0.6255450E-06-0.626E-06
 d Force = 0.0000000E+00[ 0.000E+00, 0.000E+00]  d Ewald  =-0.2174179E+00 0.217E+00

[...]

 eigenvalue-minimisations  :   688
 total energy-change (2. order) : 0.8387779E-06  (-0.4004185E-06)
 number of electron      37.9999994 magnetization
 augmentation part       14.6122325 magnetization

[...]

 Broyden mixing:
  rms(total) = 0.49661E-04    rms(broyden)= 0.49660E-04
  rms(prec ) = 0.74712E-04
  weight for this iteration     100.00

 eigenvalues of (default mixing * dielectric matrix)
  average eigenvalue GAMMA=   1.6378
  2.3588  0.9247  1.6298

[...]

--------------------------------------- Iteration      9(   5)  ---------------------------------------

 eigenvalue-minimisations  :   688
 total energy-change (2. order) :-0.1056824E-06  (-0.1314655E-07)
 number of electron      37.9999994 magnetization
 augmentation part       14.6121945 magnetization

 Free energy of the ion-electron system (eV)
  alpha Z        PSCENC =       106.83457713
  Ewald energy   TEWEN  =     -2478.64097261
  -Hartree energ DENC   =     -1195.19776553
  -exchange      EXHF   =         0.00000000
  -V(xc)+E(xc)   XCENC  =       126.97303132
  PAW double counting   =      3311.25170957    -3456.79640977
  entropy T*S    EENTRO =        -0.00015238
  eigenvalues    EBANDS =      -577.11634787
  atomic energy  EATOM  =      4153.78731487
  Solvation  Ediel_sol  =         0.00000000
  free energy    TOTEN  =        -8.90501527 eV

  energy without entropy =       -8.90486289  energy(sigma->0) =       -8.90493908

 average (electrostatic) potential at core
  the test charge radii are     1.0856  0.9254  1.1097
  (the norm of the test charge is              1.0000)
       1-107.3146       2 -48.1831       3 -48.1831       4 -37.9003

 E-fermi :   2.1879     XC(G=0):  -7.9616     alpha+bet : -7.7781

[...]

 k-point    29 :      -0.2500    0.5000    0.2500
  band No.  band energies     occupation
      1     -25.6063      2.00000
      2     -22.3855      2.00000
      3     -22.3841      2.00000
      4     -22.3807      2.00000
      5     -22.3807      2.00000
      6     -22.3763      2.00000
      7     -22.3761      2.00000
      8     -19.1103      2.00000
      9     -19.1103      2.00000
     10     -19.1096      2.00000
     11     -19.1086      2.00000
     12     -19.1086      2.00000
     13      -9.7770      2.00000
     14      -9.7770      2.00000
     15      -9.7720      2.00000
     16      -7.0891      2.00000
     17       0.7996      2.00000
     18       0.7996      2.00000
     19       1.0761      2.00000
     20       4.9988      0.00000
     21       4.9988      0.00000
     22       5.0339      0.00000
     23       5.5821      0.00000

 soft charge-density along one line, spin component           1
         0         1         2         3         4         5         6         7         8         9
 total charge-density along one line

------------------------ aborting loop because EDIFF is reached ----------------------------------------

  FORCE on cell =-STRESS in cart. coord.  units (eV):
  Direction    XX          YY          ZZ          XY          YZ          ZX
  Alpha Z   106.83458   106.83458   106.83458
  Ewald    -826.21432  -826.21432  -826.21432    -0.00028    -0.00028    -0.00028
  Hartree   398.39932   398.39932   398.39932    -0.00017    -0.00017    -0.00017
  E(xc)    -180.54463  -180.54463  -180.54463     0.00004     0.00004     0.00004
  Local     -96.71602   -96.71602   -96.71602     0.00039     0.00039     0.00039
  n-local    17.61470    17.95159    14.85562     1.84425    -1.47446     0.81346
  augment   217.29325   217.29325   217.29325     0.00005     0.00005     0.00005
  Kinetic   364.96691   364.70232   362.75526     3.08358    -2.04275     1.41040
  Fock        0.00000     0.00000     0.00000     0.00000     0.00000     0.00000
  Total       0.00098     0.00098     0.00098     0.00000     0.00000    -0.00000
  in kB       0.01171     0.01171     0.01171     0.00000     0.00000    -0.00000

 VOLUME and BASIS-vectors are now :
  energy-cutoff  :      520.00
  volume of cell :      133.39
      direct lattice vectors                 reciprocal lattice vectors
    -0.000000000  4.055366141  4.055366141    -0.123293430  0.123293430  0.123293430
     4.055366141  0.000000000  4.055366141     0.123293430 -0.123293430  0.123293430
     4.055366141  4.055366141 -0.000000000     0.123293430  0.123293430 -0.123293430

  length of vectors
     5.735153797  5.735153797  5.735153797     0.213550484  0.213550484  0.213550484

 FORCES acting on ions
    electron-ion (+dipol)            ewald-force                    non-local-force                 convergence-correction
   -.731E-03 -.731E-03 -.681E-03   -.433E-03 -.433E-03 -.433E-03   -.445E-20 -.254E-20 -.614E-20   -.736E-09 -.736E-09 -.125E-09
   0.727E-04 0.727E-04 0.694E-04   -.193E-04 -.193E-04 -.193E-04   0.139E-16 0.104E-16 0.891E-17   0.107E-08 0.107E-08 0.932E-09
   -.387E-03 -.387E-03 -.391E-03   -.385E-03 -.385E-03 -.385E-03   -.121E-16 -.104E-16 -.956E-17   -.286E-08 -.286E-08 -.300E-08
   0.373E-02 0.373E-02 0.376E-02   0.838E-03 0.838E-03 0.838E-03   0.169E-19 0.119E-19 0.168E-20   -.139E-07 -.139E-07 -.145E-07
   0.268E-02 0.268E-02 0.276E-02   -.582E-15 -.557E-15 -.124E-14   0.175E-17 0.932E-20 -.655E-18   -.164E-07 -.164E-07 -.167E-07

 POSITION                                       TOTAL-FORCE (eV/Angst)
      2.02768      2.02768      2.02768         0.000000     -0.000000     -0.000000
      0.00000      0.00000      0.00000         0.000000     -0.000000     -0.000000
      4.05537      4.05537      4.05537        -0.000000      0.000000      0.000000
      6.08304      6.08304      6.08304        -0.000000      0.000000      0.000000
    total drift:                                0.002680      0.002680      0.002759

  FREE ENERGIE OF THE ION-ELECTRON SYSTEM (eV)
  free  energy   TOTEN  =        -8.90501527 eV

  energy  without entropy=       -8.90486289  energy(sigma->0) =       -8.90493908

 d Force = 0.0000000E+00[ 0.000E+00, 0.000E+00]  d Energy =-0.2587849E-06 0.259E-06
 d Force = 0.0000000E+00[ 0.000E+00, 0.000E+00]  d Ewald  = 0.1087042E+00-0.109E+00

 reached required accuracy - stopping structural energy minimisation