 vasp.5.4.4.18Apr17-6-g9f103f2a35 (build Jun 23 2019 17:35:09) complex

 executed on             LinuxIFC date 2020.01.14  23:27:11

 INCAR:
 POTCAR:    PAW_PBE K_sv 06Sep2000
 POTCAR:    PAW_PBE Na_pv 19Sep2006
 POTCAR:    PAW_PBE Sb 06Sep2000

 POTCAR:    PAW_PBE K_sv 06Sep2000
   VRHFIN =K:  3s3p4s

   TITEL  = PAW_PBE K_sv 06Sep2000
   POMASS =   39.098; ZVAL   =    9.000    mass and valenz
   ENMAX  =  259.264; ENMIN  =  194.448 eV

 POTCAR:    PAW_PBE Na_pv 19Sep2006
   VRHFIN =Na: p6s1

   TITEL  = PAW_PBE Na_pv 19Sep2006
   POMASS =   22.990; ZVAL   =    7.000    mass and valenz
   ENMAX  =  259.561; ENMIN  =  194.671 eV

 POTCAR:    PAW_PBE Sb 06Sep2000
   VRHFIN =Sb: s2p3

   TITEL  = PAW_PBE Sb 06Sep2000
   POMASS =  121.750; ZVAL   =    5.000    mass and valenz
   ENMAX  =  172.069; ENMIN  =  129.052 eV

  PAW_PBE K_sv 06Sep2000                :
  PAW_PBE Na_pv 19Sep2006               :
  PAW_PBE Sb 06Sep2000                  :

 POSCAR: Na K Sb
  positions in direct lattice
 exchange correlation table for  LEXCH =        8
   RHO(1)=    0.500       N(1)  =     2000
   RHO(2)=  100.500       N(2)  =     4000

 ion  position               nearest neighbor table
   1  0.500  0.000  0.500-
   2  0.750  0.500  0.250-
   3  0.250  0.500  0.750-
   4  0.000  0.000  0.000-

  LATTYP: Found a face centered cubic cell.
 ALAT       =     7.6928220000

  Lattice vectors:

 A1 = (  -3.8464110000,   0.0000000000,  -3.8464110000)
 A2 = (   0.0000000000,  -3.8464110000,  -3.8464110000)
 A3 = (  -3.8464110000,  -3.8464110000,   0.0000000000)

Analysis of symmetry for initial positions (statically):
 Subroutine PRICEL returns:
 Original cell was already a primitive cell.

 Routine SETGRP: Setting up the symmetry group for a
 face centered cubic supercell.

 Subroutine GETGRP returns: Found 48 space group operations
 (whereof 48 operations were pure point group operations)
 out of a pool of 48 trial point group operations.

The static configuration has the point symmetry O_h .

Analysis of symmetry for dynamics (positions and initial velocities):
 Subroutine PRICEL returns:
 Original cell was already a primitive cell.

 Routine SETGRP: Setting up the symmetry group for a
 face centered cubic supercell.

 Subroutine GETGRP returns: Found 48 space group operations
 (whereof 48 operations were pure point group operations)
 out of a pool of 48 trial point group operations.

The dynamic configuration has the point symmetry O_h .

 Subroutine INISYM returns: Found 48 space group operations
 (whereof 48 operations are pure point group operations),
 and found     1 'primitive' translations

 KPOINTS: KPOINTS

Automatic generation of k-mesh.
Space group operators:
 irot       det(A)        alpha          n_x          n_y          n_z        tau_x        tau_y        tau_z
    1     1.000000     0.000000     1.000000     0.000000     0.000000     0.000000     0.000000     0.000000
    2    -1.000000     0.000000     1.000000     0.000000     0.000000     0.000000     0.000000     0.000000
    3     1.000000   120.000000     0.577350     0.577350     0.577350     0.000000     0.000000     0.000000
    4    -1.000000   120.000000     0.577350     0.577350     0.577350     0.000000     0.000000     0.000000
    5     1.000000   120.000000    -0.577350    -0.577350    -0.577350     0.000000     0.000000     0.000000
    6    -1.000000   120.000000    -0.577350    -0.577350    -0.577350     0.000000     0.000000     0.000000
    7     1.000000    90.000000     0.000000     0.000000     1.000000     0.000000     0.000000     0.000000
    8    -1.000000    90.000000     0.000000     0.000000     1.000000     0.000000     0.000000     0.000000
    9     1.000000   180.000000     0.707107     0.000000     0.707107     0.000000     0.000000     0.000000
   10    -1.000000   180.000000     0.707107     0.000000     0.707107     0.000000     0.000000     0.000000
   11     1.000000    90.000000    -1.000000     0.000000     0.000000     0.000000     0.000000     0.000000
   12    -1.000000    90.000000    -1.000000     0.000000     0.000000     0.000000     0.000000     0.000000
   13     1.000000   180.000000     0.000000     0.000000     1.000000     0.000000     0.000000     0.000000
   14    -1.000000   180.000000     0.000000     0.000000     1.000000     0.000000     0.000000     0.000000
   15     1.000000   120.000000    -0.577350     0.577350    -0.577350     0.000000     0.000000     0.000000
   16    -1.000000   120.000000    -0.577350     0.577350    -0.577350     0.000000     0.000000     0.000000
   17     1.000000   120.000000    -0.577350     0.577350     0.577350     0.000000     0.000000     0.000000
   18    -1.000000   120.000000    -0.577350     0.577350     0.577350     0.000000     0.000000     0.000000
   19     1.000000    90.000000     0.000000     0.000000    -1.000000     0.000000     0.000000     0.000000
   20    -1.000000    90.000000     0.000000     0.000000    -1.000000     0.000000     0.000000     0.000000
   21     1.000000    90.000000     0.000000     1.000000     0.000000     0.000000     0.000000     0.000000
   22    -1.000000    90.000000     0.000000     1.000000     0.000000     0.000000     0.000000     0.000000
   23     1.000000   180.000000     0.000000     0.707107     0.707107     0.000000     0.000000     0.000000
   24    -1.000000   180.000000     0.000000     0.707107     0.707107     0.000000     0.000000     0.000000
   25     1.000000   120.000000     0.577350    -0.577350    -0.577350     0.000000     0.000000     0.000000
   26    -1.000000   120.000000     0.577350    -0.577350    -0.577350     0.000000     0.000000     0.000000
   27     1.000000   120.000000     0.577350     0.577350    -0.577350     0.000000     0.000000     0.000000
   28    -1.000000   120.000000     0.577350     0.577350    -0.577350     0.000000     0.000000     0.000000
   29     1.000000   180.000000     0.000000     1.000000     0.000000     0.000000     0.000000     0.000000
   30    -1.000000   180.000000     0.000000     1.000000     0.000000     0.000000     0.000000     0.000000
   31     1.000000    90.000000     1.000000     0.000000     0.000000     0.000000     0.000000     0.000000
   32    -1.000000    90.000000     1.000000     0.000000     0.000000     0.000000     0.000000     0.000000
   33     1.000000   180.000000     0.707107     0.707107     0.000000     0.000000     0.000000     0.000000
   34    -1.000000   180.000000     0.707107     0.707107     0.000000     0.000000     0.000000     0.000000
   35     1.000000    90.000000     0.000000    -1.000000     0.000000     0.000000     0.000000     0.000000
   36    -1.000000    90.000000     0.000000    -1.000000     0.000000     0.000000     0.000000     0.000000
   37     1.000000   120.000000     0.577350    -0.577350     0.577350     0.000000     0.000000     0.000000
   38    -1.000000   120.000000     0.577350    -0.577350     0.577350     0.000000     0.000000     0.000000
   39     1.000000   180.000000     1.000000     0.000000     0.000000     0.000000     0.000000     0.000000
   40    -1.000000   180.000000     1.000000     0.000000     0.000000     0.000000     0.000000     0.000000
   41     1.000000   120.000000    -0.577350    -0.577350     0.577350     0.000000     0.000000     0.000000
   42    -1.000000   120.000000    -0.577350    -0.577350     0.577350     0.000000     0.000000     0.000000
   43     1.000000   180.000000     0.707107     0.000000    -0.707107     0.000000     0.000000     0.000000
   44    -1.000000   180.000000     0.707107     0.000000    -0.707107     0.000000     0.000000     0.000000
   45     1.000000   180.000000     0.707107    -0.707107     0.000000     0.000000     0.000000     0.000000
   46    -1.000000   180.000000     0.707107    -0.707107     0.000000     0.000000     0.000000     0.000000
   47     1.000000   180.000000     0.000000    -0.707107     0.707107     0.000000     0.000000     0.000000
   48    -1.000000   180.000000     0.000000    -0.707107     0.707107     0.000000     0.000000     0.000000

 Subroutine IBZKPT returns following result:

 Found     29 irreducible k-points:

 Following reciprocal coordinates:
            Coordinates               Weight
  0.000000  0.000000  0.000000      1.000000
  0.125000  0.000000  0.000000      8.000000
  0.250000  0.000000  0.000000      8.000000
  0.375000  0.000000  0.000000      8.000000
  0.500000  0.000000  0.000000      4.000000
  0.000000  0.125000  0.000000      6.000000
  0.125000  0.125000  0.000000     24.000000
  0.250000  0.125000  0.000000     24.000000
  0.375000  0.125000  0.000000     24.000000
  0.500000  0.125000  0.000000     24.000000
 -0.375000  0.125000  0.000000     24.000000
 -0.250000  0.125000  0.000000     12.000000
  0.000000  0.250000  0.000000      6.000000
  0.125000  0.250000  0.000000     24.000000
  0.250000  0.250000  0.000000     24.000000
  0.375000  0.250000  0.000000     24.000000
  0.500000  0.250000  0.000000     12.000000
  0.000000  0.375000  0.000000      6.000000
  0.125000  0.375000  0.000000     24.000000
  0.250000  0.375000  0.000000     12.000000
  0.000000  0.500000  0.000000      3.000000
  0.125000  0.125000  0.125000     24.000000
  0.250000  0.125000  0.125000     48.000000
  0.375000  0.125000  0.125000     24.000000
  0.125000  0.250000  0.125000     24.000000
  0.250000  0.250000  0.125000     48.000000
  0.375000  0.250000  0.125000     24.000000
  0.125000  0.375000  0.125000     12.000000
  0.250000  0.250000  0.250000      6.000000

 Following cartesian coordinates:
            Coordinates               Weight
  0.000000  0.000000  0.000000      1.000000
  0.016249 -0.016249 -0.016249      8.000000
  0.032498 -0.032498 -0.032498      8.000000
  0.048747 -0.048747 -0.048747      8.000000
  0.064996 -0.064996 -0.064996      4.000000
  0.000000  0.000000 -0.032498      6.000000
  0.016249 -0.016249 -0.048747     24.000000
  0.032498 -0.032498 -0.064996     24.000000
  0.048747 -0.048747 -0.081245     24.000000
  0.064996 -0.064996 -0.097493     24.000000
 -0.048747  0.048747  0.016249     24.000000
 -0.032498  0.032498  0.000000     12.000000
  0.000000  0.000000 -0.064996      6.000000
  0.016249 -0.016249 -0.081245     24.000000
  0.032498 -0.032498 -0.097493     24.000000
  0.048747 -0.048747 -0.113742     24.000000
  0.064996 -0.064996 -0.129991     12.000000
  0.000000  0.000000 -0.097493      6.000000
  0.016249 -0.016249 -0.113742     24.000000
  0.032498 -0.032498 -0.129991     12.000000
  0.000000  0.000000 -0.129991      3.000000
  0.032498  0.000000 -0.064996     24.000000
  0.048747 -0.016249 -0.081245     48.000000
  0.064996 -0.032498 -0.097493     24.000000
  0.032498  0.000000 -0.097493     24.000000
  0.048747 -0.016249 -0.113742     48.000000
  0.064996 -0.032498 -0.129991     24.000000
  0.032498  0.000000 -0.129991     12.000000
  0.064996  0.000000 -0.129991      6.000000

 SYSTEM =  unknown system
 POSCAR =  Na K Sb

 Startparameter for this run:
   NWRITE =      2    write-flag & timer
   PREC   = acc       normal or accurate (medium, high low for compatibility)
   ISTART =      0    job   : 0-new  1-cont  2-samecut
[...]
   0.00000000  0.37500000  0.00000000       0.012
   0.12500000  0.37500000  0.00000000       0.047
   0.25000000  0.37500000  0.00000000       0.023
   0.00000000  0.50000000  0.00000000       0.006
   0.12500000  0.12500000  0.12500000       0.047
   0.25000000  0.12500000  0.12500000       0.094
   0.37500000  0.12500000  0.12500000       0.047
   0.12500000  0.25000000  0.12500000       0.047
   0.25000000  0.25000000  0.12500000       0.094
   0.37500000  0.25000000  0.12500000       0.047
   0.12500000  0.37500000  0.12500000       0.023
   0.25000000  0.25000000  0.25000000       0.012

 position of ions in fractional coordinates (direct lattice)
   0.49999987  0.00000000  0.49999987
   0.75000175  0.50000117  0.25000058
   0.25000058  0.50000117  0.75000175
   0.00000000  0.00000000  0.00000000

 position of ions in cartesian coordinates  (Angst):
   3.84641000  0.00000000  0.00000000
   1.92321000 -1.92321000 -1.92321000
   1.92321000  1.92321000 -1.92321000
   0.00000000  0.00000000  0.00000000

 k-point  1 :   0.0000 0.0000 0.0000  plane waves:    3119
 k-point  2 :   0.1250 0.0000 0.0000  plane waves:    3068
 k-point  3 :   0.2500 0.0000 0.0000  plane waves:    3053
 k-point  4 :   0.3750 0.0000 0.0000  plane waves:    3052
 k-point  5 :   0.5000 0.0000 0.0000  plane waves:    3040
 k-point  6 :   0.0000 0.1250 0.0000  plane waves:    3055
 k-point  7 :   0.1250 0.1250 0.0000  plane waves:    3055
 k-point  8 :   0.2500 0.1250 0.0000  plane waves:    3057
 k-point  9 :   0.3750 0.1250 0.0000  plane waves:    3062
 k-point 10 :   0.5000 0.1250 0.0000  plane waves:    3059
 k-point 11 :  -0.3750 0.1250 0.0000  plane waves:    3058
 k-point 12 :  -0.2500 0.1250 0.0000  plane waves:    3060
 k-point 13 :   0.0000 0.2500 0.0000  plane waves:    3066
 k-point 14 :   0.1250 0.2500 0.0000  plane waves:    3058
 k-point 15 :   0.2500 0.2500 0.0000  plane waves:    3062
 k-point 16 :   0.3750 0.2500 0.0000  plane waves:    3075
 k-point 17 :   0.5000 0.2500 0.0000  plane waves:    3082
 k-point 18 :   0.0000 0.3750 0.0000  plane waves:    3062
 k-point 19 :   0.1250 0.3750 0.0000  plane waves:    3071
 k-point 20 :   0.2500 0.3750 0.0000  plane waves:    3080
 k-point 21 :   0.0000 0.5000 0.0000  plane waves:    3026
 k-point 22 :   0.1250 0.1250 0.1250  plane waves:    3056
 k-point 23 :   0.2500 0.1250 0.1250  plane waves:    3067
 k-point 24 :   0.3750 0.1250 0.1250  plane waves:    3068
 k-point 25 :   0.1250 0.2500 0.1250  plane waves:    3059
 k-point 26 :   0.2500 0.2500 0.1250  plane waves:    3071
 k-point 27 :   0.3750 0.2500 0.1250  plane waves:    3074
 k-point 28 :   0.1250 0.3750 0.1250  plane waves:    3074
 k-point 29 :   0.2500 0.2500 0.2500  plane waves:    3052

 maximum and minimum number of plane-waves per node :       455      420

 maximum number of plane-waves:      3119
 maximum index in each direction:
   IXMAX=   10   IYMAX=   10   IZMAX=   10
   IXMIN=  -10   IYMIN=  -10   IZMIN=  -10

 parallel 3D FFT for wavefunctions:
    minimum data exchange during FFTs selected (reduces bandwidth)
 parallel 3D FFT for charge:
    minimum data exchange during FFTs selected (reduces bandwidth)

 Broyden mixing: mesh for mixing (old mesh)
   NGX = 21   NGY = 21   NGZ = 21
  (NGX  = 80   NGY  = 80   NGZ  = 80)
  gives a total of   9261 points

 initial charge density was supplied:
 charge density of overlapping atoms calculated
 number of electron      28.0000000 magnetization
 keeping initial charge density in first step

 Maximum index for augmentation-charges         4893 (set IRDMAX)

 First call to EWALD:  gamma=   0.366
 Maximum number of real-space cells 3x 3x 3
 Maximum number of reciprocal cells 3x 3x 3

--------------------------------------- Iteration      1(   1)  ---------------------------------------

 eigenvalue-minimisations  :  1044
 total energy-change (2. order) : 0.2259712E+03  (-0.1357575E+04)
 number of electron      28.0000000 magnetization
 augmentation part       28.0000000 magnetization

 Free energy of the ion-electron system (eV)
  alpha Z        PSCENC =        52.41865611
  Ewald energy   TEWEN  =     -1361.33884147
  -Hartree energ DENC   =      -693.10075405
  -exchange      EXHF   =         0.00000000
  -V(xc)+E(xc)   XCENC  =        38.88268803
  PAW double counting   =      1762.39966399    -1880.54449946
  entropy T*S    EENTRO =        -0.00156863
  eigenvalues    EBANDS =      -149.78450783
  atomic energy  EATOM  =      2457.04034448
  Solvation  Ediel_sol  =         0.00000000
  free energy    TOTEN  =       225.97118118 eV

  energy without entropy =      225.97274981  energy(sigma->0) =      225.97196549

[...]

 eigenvalue-minimisations  :  1058
 total energy-change (2. order) :-0.2184608E+03  (-0.2147389E+03)
 number of electron      28.0000000 magnetization
 augmentation part       28.0000000 magnetization

[...]

 Broyden mixing:
  rms(total) = 0.42882E+00    rms(broyden)= 0.42882E+00
  rms(prec ) = 0.93717E+00
  weight for this iteration     100.00

[...]

 eigenvalues of (default mixing * dielectric matrix)
  average eigenvalue GAMMA=   2.1339
  2.1339

[...]

 average (electrostatic) potential at core
  the test charge radii are     1.1045  0.9254  1.1712
  (the norm of the test charge is              1.0000)
       1 -35.9680       2 -47.7021       3 -47.7021       4 -88.8109

 E-fermi :   2.6299     XC(G=0):  -8.1664     alpha+bet : -8.4200

 k-point     1 :       0.0000    0.0000    0.0000
  band No.  band energies     occupation
      1     -28.7124      2.00000
      2     -21.9085      2.00000
      3     -21.9085      2.00000
      4     -21.9085      2.00000
      5     -21.8969      2.00000
      6     -21.8969      2.00000
      7     -21.8969      2.00000
      8     -12.2367      2.00000
      9     -12.2367      2.00000
     10     -12.2367      2.00000
     11      -5.6988      2.00000
     12       2.3060      2.00000
     13       2.3060      2.00000
     14       2.3061      2.00000
     15       3.1296      0.00000
     16       5.0993      0.00000
     17       5.0993      0.00000
     18       5.0993      0.00000

[...]

 soft charge-density along one line, spin component           1
         0         1         2         3         4         5         6         7         8         9
 total charge-density along one line

------------------------ aborting loop because EDIFF is reached ----------------------------------------

  FORCE on cell =-STRESS in cart. coord.  units (eV):
  Direction    XX          YY          ZZ          XY          YZ          ZX
  Alpha Z    52.41866    52.41866    52.41866
  Ewald    -453.78000  -453.78000  -453.78000     0.00000     0.00000    -0.00062
  Hartree   226.65042   226.65042   226.65042    -0.00000     0.00000    -0.00034
  E(xc)    -133.34428  -133.34430  -133.34439     0.00000     0.00000     0.00005
  Local      -1.92395    -1.92389    -1.92382    -0.00000     0.00000     0.00087
  n-local   -17.45965   -17.57522   -20.05969     1.50856    -0.63425     1.15958
  augment    75.77010    75.77004    75.76998     0.00000     0.00000     0.00007
  Kinetic   253.98217   253.98913   251.75585     2.92421    -1.31858     1.90778
  Fock        0.00000     0.00000     0.00000     0.00000     0.00000     0.00000
  Total       0.66844     0.66844     0.66844     0.00000    -0.00000     0.00000
  in kB       9.40967     9.40967     9.40967     0.00000    -0.00000     0.00000

 VOLUME and BASIS-vectors are now :
  energy-cutoff  :      520.00
  volume of cell :      113.81
      direct lattice vectors                 reciprocal lattice vectors
     3.846411000 -3.846411000  0.000000000     0.129991309 -0.129991309 -0.129991309
    -3.846411000  0.000000000 -3.846411000     0.000000000  0.000000000 -0.259982618
     3.846411000  3.846411000  0.000000000     0.129991309  0.129991309 -0.129991309

[...]

 FORCES acting on ions
    electron-ion (+dipol)            ewald-force                    non-local-force                 convergence-correction
   0.505E-03 -.322E-11 0.192E-03   0.391E-03 -.198E-13 -.300E-03   0.339E-20 -.847E-21 0.000E+00   -.550E-05 0.670E-13 0.174E-05
   -.898E-03 0.754E-03 0.903E-03   -.267E-03 0.467E-03 0.234E-03   -.651E-17 -.434E-18 0.000E+00   0.292E-05 -.601E-05 -.225E-05
   -.898E-03 -.754E-03 0.903E-03   -.267E-03 -.467E-03 0.234E-03   -.653E-17 0.169E-16 0.000E+00   0.292E-05 0.601E-05 -.225E-05
   -.103E-03 -.506E-12 0.107E-03   0.143E-03 -.452E-15 -.167E-03   -.318E-21 0.212E-21 0.000E+00   0.140E-06 -.593E-14 0.479E-06
   -.139E-02 -.288E-10 0.211E-02   0.368E-15 0.541E-17 -.268E-15   -.130E-16 0.165E-16 0.000E+00   0.476E-06 0.693E-13 -.228E-05

 POSITION                                       TOTAL-FORCE (eV/Angst)
      3.84641      0.00000      0.00000        -0.000000      0.000000      0.000000
      1.92321     -1.92321     -1.92321        -0.000000      0.000000     -0.000000
      1.92321      1.92321     -1.92321         0.000000     -0.000000      0.000000
      0.00000      0.00000      0.00000         0.000000     -0.000000      0.000000
    total drift:                               -0.001393     -0.000000      0.002103

  FREE ENERGIE OF THE ION-ELECTRON SYSTEM (eV)
  free  energy   TOTEN  =        -9.54506908 eV

  energy  without entropy=       -9.54506908  energy(sigma->0) =       -9.54506908

[...]

 d Force = 0.0000000E+00[ 0.000E+00, 0.000E+00]  d Energy = 0.1085508E-01-0.109E-01
 d Force = 0.0000000E+00[ 0.000E+00, 0.000E+00]  d Ewald  =-0.1088707E+02 0.109E+02

 Steepest descent step on ions:
 trial-energy change:   -0.010855  1 .order   -0.010743   -0.016166   -0.005320
  (g-gl).g = 0.162E-01      g.g   = 0.162E-01  gl.gl    = 0.000E+00
 g(Force)  = 0.119E-39   g(Stress)= 0.162E-01 ortho     = 0.000E+00
 gamma     =   0.00000
 trial     =   1.00000
 opt step  =   1.45021  (harmonic =   1.49054) maximal distance =0.00000000
 next E    =    -9.557132   (d E  =  -0.01206)

[...]

 d Force = 0.0000000E+00[ 0.000E+00, 0.000E+00]  d Energy =-0.8376467E-03 0.838E-03
 d Force = 0.0000000E+00[ 0.000E+00, 0.000E+00]  d Ewald  =-0.9586095E+01 0.959E+01

[...]

 d Force = 0.0000000E+00[ 0.000E+00, 0.000E+00]  d Energy = 0.1248491E-02-0.125E-02
 d Force = 0.0000000E+00[ 0.000E+00, 0.000E+00]  d Ewald  = 0.6985280E+01-0.699E+01

[...]

 d Force = 0.0000000E+00[ 0.000E+00, 0.000E+00]  d Energy =-0.1968317E-03 0.197E-03
 d Force = 0.0000000E+00[ 0.000E+00, 0.000E+00]  d Ewald  =-0.3501747E+01 0.350E+01

[...]

 d Force = 0.0000000E+00[ 0.000E+00, 0.000E+00]  d Energy = 0.3976487E-05-0.398E-05
 d Force = 0.0000000E+00[ 0.000E+00, 0.000E+00]  d Ewald  = 0.6892280E+00-0.689E+00

[...]

 d Force = 0.0000000E+00[ 0.000E+00, 0.000E+00]  d Energy =-0.5551888E-06 0.555E-06
 d Force = 0.0000000E+00[ 0.000E+00, 0.000E+00]  d Ewald  = 0.2057727E+00-0.206E+00

[...]

 eigenvalue-minimisations  :   528
 total energy-change (2. order) : 0.7678991E-06  (-0.1465467E-06)
 number of electron      28.0000007 magnetization
 augmentation part        9.6198674 magnetization

 Broyden mixing:
  rms(total) = 0.18543E-03    rms(broyden)= 0.18543E-03
  rms(prec ) = 0.21715E-03
  weight for this iteration     100.00

 eigenvalues of (default mixing * dielectric matrix)
  average eigenvalue GAMMA=   1.5891
  2.2162  1.2756  1.2756

[...]

--------------------------------------- Iteration     12(   5)  ---------------------------------------

 eigenvalue-minimisations  :   528
 total energy-change (2. order) :-0.5663151E-07  (-0.8599772E-07)
 number of electron      28.0000007 magnetization
 augmentation part        9.6198674 magnetization

 Free energy of the ion-electron system (eV)
  alpha Z        PSCENC =        50.22067890
  Ewald energy   TEWEN  =     -1342.03899423
  -Hartree energ DENC   =      -690.31732439
  -exchange      EXHF   =         0.00000000
  -V(xc)+E(xc)   XCENC  =        38.96519246
  PAW double counting   =      1907.15206479    -2026.55954018
  entropy T*S    EENTRO =        -0.00000000
  eigenvalues    EBANDS =      -404.02085108
  atomic energy  EATOM  =      2457.04034448
  Solvation  Ediel_sol  =         0.00000000
  free energy    TOTEN  =        -9.55842924 eV

  energy without entropy =       -9.55842924  energy(sigma->0) =       -9.55842924

 average (electrostatic) potential at core
  the test charge radii are     1.1045  0.9254  1.1712
  (the norm of the test charge is              1.0000)
       1 -36.2371       2 -47.9660       3 -47.9660       4 -89.0705

 E-fermi :   2.2965     XC(G=0):  -8.0108     alpha+bet : -8.0669

[...]

 k-point    29 :       0.2500    0.2500    0.2500
  band No.  band energies     occupation
      1     -28.9736      2.00000
      2     -22.1726      2.00000
      3     -22.1713      2.00000
      4     -22.1650      2.00000
      5     -22.1650      2.00000
      6     -22.1579      2.00000
      7     -22.1579      2.00000
      8     -12.5031      2.00000
      9     -12.5031      2.00000
     10     -12.4978      2.00000
     11      -5.4652      2.00000
     12       0.5947      2.00000
     13       0.5947      2.00000
     14       0.9876      2.00000
     15       5.0059      0.00000
     16       5.3529      0.00000
     17       5.3529      0.00000
     18       6.0227      0.00000

 soft charge-density along one line, spin component           1
         0         1         2         3         4         5         6         7         8         9
 total charge-density along one line

------------------------ aborting loop because EDIFF is reached ----------------------------------------

  FORCE on cell =-STRESS in cart. coord.  units (eV):
  Direction    XX          YY          ZZ          XY          YZ          ZX
  Alpha Z    50.22068    50.22068    50.22068
  Ewald    -447.34672  -447.34672  -447.34672    -0.00000    -0.00000    -0.00061
  Hartree   230.10520   230.10520   230.10520    -0.00000     0.00000    -0.00034
  E(xc)    -133.14308  -133.14310  -133.14320     0.00000     0.00000     0.00006
  Local      -9.39531    -9.39524    -9.39517    -0.00000     0.00000     0.00085
  n-local   -17.88793   -18.02960   -20.53234     1.55265    -0.65467     1.19419
  augment    75.80461    75.80454    75.80448     0.00000     0.00000     0.00012
  Kinetic   253.31295   253.31575   251.07691     2.84298    -1.27234     1.84787
  Fock        0.00000     0.00000     0.00000     0.00000     0.00000     0.00000
  Total      -0.00275    -0.00275    -0.00275    -0.00000    -0.00000     0.00000
  in kB      -0.03705    -0.03705    -0.03705    -0.00000    -0.00000     0.00000

 VOLUME and BASIS-vectors are now :
  energy-cutoff  :      520.00
  volume of cell :      118.80
      direct lattice vectors                 reciprocal lattice vectors
     3.901726192 -3.901726192 -0.000000000     0.128148408 -0.128148408 -0.128148408
    -3.901726192  0.000000000 -3.901726192     0.000000000  0.000000000 -0.256296816
     3.901726192  3.901726192  0.000000000     0.128148408  0.128148408 -0.128148408

  length of vectors
     5.517874097  5.517874097  5.517874097     0.221959554  0.256296816  0.221959554

 FORCES acting on ions
    electron-ion (+dipol)            ewald-force                    non-local-force                 convergence-correction
   0.525E-03 -.306E-11 0.187E-03   0.380E-03 0.111E-13 -.292E-03   0.847E-21 -.254E-20 -.869E-23   0.135E-07 -.113E-14 0.756E-09
   -.924E-03 0.784E-03 0.930E-03   -.260E-03 0.454E-03 0.227E-03   -.252E-17 0.140E-16 -.104E-16   0.873E-08 -.883E-08 -.864E-08
   -.924E-03 -.784E-03 0.930E-03   -.260E-03 -.454E-03 0.227E-03   -.106E-16 -.176E-16 0.104E-16   0.873E-08 0.883E-08 -.864E-08
   -.999E-04 -.166E-11 0.104E-03   0.139E-03 -.259E-14 -.162E-03   0.318E-21 0.000E+00 0.148E-23   -.285E-09 0.225E-14 0.354E-09
   -.142E-02 -.645E-10 0.215E-02   -.226E-15 0.177E-15 0.484E-15   -.131E-16 -.361E-17 -.669E-23   0.307E-07 0.264E-13 -.162E-07

 POSITION                                       TOTAL-FORCE (eV/Angst)
      3.90173      0.00000      0.00000         0.000000     -0.000000     -0.000000
      1.95087     -1.95087     -1.95087        -0.000000      0.000000      0.000000
      1.95087      1.95087     -1.95087        -0.000000     -0.000000     -0.000000
      0.00000     -0.00000     -0.00000         0.000000     -0.000000     -0.000000
    total drift:                               -0.001423     -0.000000      0.002149

  FREE ENERGIE OF THE ION-ELECTRON SYSTEM (eV)
  free  energy   TOTEN  =        -9.55842924 eV

  energy  without entropy=       -9.55842924  energy(sigma->0) =       -9.55842924

 d Force = 0.0000000E+00[ 0.000E+00, 0.000E+00]  d Energy = 0.1167720E-05-0.117E-05
 d Force = 0.0000000E+00[ 0.000E+00, 0.000E+00]  d Ewald  =-0.1169631E+00 0.117E+00

 reached required accuracy - stopping structural energy minimisation