 vasp.5.4.4.18Apr17-6-g9f103f2a35 (build Jun 23 2019 17:35:09) complex

 executed on             LinuxIFC date 2020.01.14  23:21:00

 INCAR:
 POTCAR:    PAW_PBE Cs_sv 08Apr2002
 POTCAR:    PAW_PBE Rb_sv 06Sep2000
 POTCAR:    PAW_PBE Sb 06Sep2000

 POTCAR:    PAW_PBE Cs_sv 08Apr2002
   VRHFIN =Cs: 5s5p6s

   TITEL  = PAW_PBE Cs_sv 08Apr2002
   POMASS =  132.900; ZVAL   =    9.000    mass and valenz
   ENMAX  =  220.318; ENMIN  =  165.238 eV

 POTCAR:    PAW_PBE Rb_sv 06Sep2000
   VRHFIN =Rb: 4s4p5s

   TITEL  = PAW_PBE Rb_sv 06Sep2000
   POMASS =   85.468; ZVAL   =    9.000    mass and valenz
   ENMAX  =  220.112; ENMIN  =  165.084 eV

 POTCAR:    PAW_PBE Sb 06Sep2000
   VRHFIN =Sb: s2p3

   TITEL  = PAW_PBE Sb 06Sep2000
   POMASS =  121.750; ZVAL   =    5.000    mass and valenz
   ENMAX  =  172.069; ENMIN  =  129.052 eV

  PAW_PBE Cs_sv 08Apr2002               :
  PAW_PBE Rb_sv 06Sep2000               :
  PAW_PBE Sb 06Sep2000                  :

 POSCAR: Cs Sb Rb
  positions in direct lattice
 exchange correlation table for  LEXCH =        8
   RHO(1)=    0.500       N(1)  =     2000
   RHO(2)=  100.500       N(2)  =     4000

 ion  position               nearest neighbor table
   1  0.250  0.250  0.250-   2 3.91   3 3.91   3 3.91   3 3.91   2 3.91   2 3.91   2 3.91   3 3.91

   2  0.000  0.000  0.000-   1 3.91   4 3.91   4 3.91   4 3.91   4 3.91   1 3.91   1 3.91   1 3.91
                             3 4.51   3 4.51   3 4.51   3 4.51   3 4.51   3 4.51
   3  0.500  0.500  0.500-   4 3.91   4 3.91   4 3.91   1 3.91   1 3.91   1 3.91   1 3.91   4 3.91
                             2 4.51   2 4.51   2 4.51   2 4.51   2 4.51   2 4.51
   4  0.750  0.750  0.750-   2 3.91   3 3.91   3 3.91   3 3.91   2 3.91   2 3.91   2 3.91   3 3.91

  LATTYP: Found a face centered cubic cell.
 ALAT       =     9.0241440000

  Lattice vectors:

 A1 = (   0.0000000000,   4.5120720000,   4.5120720000)
 A2 = (   4.5120720000,   0.0000000000,   4.5120720000)
 A3 = (   4.5120720000,   4.5120720000,   0.0000000000)

Analysis of symmetry for initial positions (statically):
 Subroutine PRICEL returns:
 Original cell was already a primitive cell.

 Routine SETGRP: Setting up the symmetry group for a
 face centered cubic supercell.

 Subroutine GETGRP returns: Found 48 space group operations
 (whereof 24 operations were pure point group operations)
 out of a pool of 48 trial point group operations.

The static configuration has the point symmetry T_d .
 The point group associated with its full space group is O_h .

Analysis of symmetry for dynamics (positions and initial velocities):
 Subroutine PRICEL returns:
 Original cell was already a primitive cell.

 Routine SETGRP: Setting up the symmetry group for a
 face centered cubic supercell.

 Subroutine GETGRP returns: Found 48 space group operations
 (whereof 24 operations were pure point group operations)
 out of a pool of 48 trial point group operations.

The dynamic configuration has the point symmetry T_d .
 The point group associated with its full space group is O_h .

 Subroutine INISYM returns: Found 48 space group operations
 (whereof 24 operations are pure point group operations),
 and found     1 'primitive' translations

 KPOINTS: KPOINTS

Automatic generation of k-mesh.
Space group operators:
 irot       det(A)        alpha          n_x          n_y          n_z        tau_x        tau_y        tau_z
    1     1.000000     0.000000     1.000000     0.000000     0.000000     0.000000     0.000000     0.000000
    2     1.000000   120.000000    -0.577350    -0.577350    -0.577350     0.000000     0.000000     0.000000
    3     1.000000   120.000000     0.577350     0.577350     0.577350     0.000000     0.000000     0.000000
    4    -1.000000    90.000000     0.000000     0.000000    -1.000000     0.000000     0.000000     0.000000
    5    -1.000000   180.000000     0.000000     0.707107     0.707107     0.000000     0.000000     0.000000
    6    -1.000000    90.000000     0.000000     1.000000     0.000000     0.000000     0.000000     0.000000
    7     1.000000   180.000000     0.000000     0.000000     1.000000     0.000000     0.000000     0.000000
    8     1.000000   120.000000    -0.577350     0.577350     0.577350     0.000000     0.000000     0.000000
    9     1.000000   120.000000    -0.577350     0.577350    -0.577350     0.000000     0.000000     0.000000
   10    -1.000000    90.000000     0.000000     0.000000     1.000000     0.000000     0.000000     0.000000
   11    -1.000000    90.000000    -1.000000     0.000000     0.000000     0.000000     0.000000     0.000000
   12    -1.000000   180.000000     0.707107     0.000000     0.707107     0.000000     0.000000     0.000000
   13     1.000000   120.000000     0.577350    -0.577350     0.577350     0.000000     0.000000     0.000000
   14     1.000000   120.000000    -0.577350    -0.577350     0.577350     0.000000     0.000000     0.000000
   15     1.000000   180.000000     1.000000     0.000000     0.000000     0.000000     0.000000     0.000000
   16    -1.000000    90.000000     0.000000    -1.000000     0.000000     0.000000     0.000000     0.000000
   17    -1.000000   180.000000     0.707107     0.707107     0.000000     0.000000     0.000000     0.000000
   18    -1.000000    90.000000     1.000000     0.000000     0.000000     0.000000     0.000000     0.000000
   19     1.000000   120.000000     0.577350    -0.577350    -0.577350     0.000000     0.000000     0.000000
   20     1.000000   180.000000     0.000000     1.000000     0.000000     0.000000     0.000000     0.000000
   21     1.000000   120.000000     0.577350     0.577350    -0.577350     0.000000     0.000000     0.000000
   22    -1.000000   180.000000     0.000000    -0.707107     0.707107     0.000000     0.000000     0.000000
   23    -1.000000   180.000000     0.707107    -0.707107     0.000000     0.000000     0.000000     0.000000
   24    -1.000000   180.000000     0.707107     0.000000    -0.707107     0.000000     0.000000     0.000000
   25    -1.000000     0.000000     1.000000     0.000000     0.000000     0.499999     0.499999     0.499999
   26    -1.000000   120.000000    -0.577350    -0.577350    -0.577350     0.499999     0.499999     0.499999
   27    -1.000000   120.000000     0.577350     0.577350     0.577350     0.499999     0.499999     0.499999
   28     1.000000    90.000000     0.000000     0.000000    -1.000000     0.500001     0.499999     0.499999
   29     1.000000   180.000000     0.000000     0.707107     0.707107     0.500001     0.499999     0.499999
   30     1.000000    90.000000     0.000000     1.000000     0.000000     0.500001     0.499999     0.499999
   31    -1.000000   180.000000     0.000000     0.000000     1.000000     0.499999     0.499999     0.500001
   32    -1.000000   120.000000    -0.577350     0.577350     0.577350     0.499999     0.499999     0.500001
   33    -1.000000   120.000000    -0.577350     0.577350    -0.577350     0.499999     0.499999     0.500001
   34     1.000000    90.000000     0.000000     0.000000     1.000000     0.499999     0.500001     0.499999
   35     1.000000    90.000000    -1.000000     0.000000     0.000000     0.499999     0.500001     0.499999
   36     1.000000   180.000000     0.707107     0.000000     0.707107     0.499999     0.500001     0.499999
   37    -1.000000   120.000000     0.577350    -0.577350     0.577350     0.500001     0.499999     0.499999
   38    -1.000000   120.000000    -0.577350    -0.577350     0.577350     0.500001     0.499999     0.499999
   39    -1.000000   180.000000     1.000000     0.000000     0.000000     0.500001     0.499999     0.499999
   40     1.000000    90.000000     0.000000    -1.000000     0.000000     0.499999     0.499999     0.500001
   41     1.000000   180.000000     0.707107     0.707107     0.000000     0.499999     0.499999     0.500001
   42     1.000000    90.000000     1.000000     0.000000     0.000000     0.499999     0.499999     0.500001
   43    -1.000000   120.000000     0.577350    -0.577350    -0.577350     0.499999     0.500001     0.499999
   44    -1.000000   180.000000     0.000000     1.000000     0.000000     0.499999     0.500001     0.499999
   45    -1.000000   120.000000     0.577350     0.577350    -0.577350     0.499999     0.500001     0.499999
   46     1.000000   180.000000     0.000000    -0.707107     0.707107     0.499999     0.499999     0.499999
   47     1.000000   180.000000     0.707107    -0.707107     0.000000     0.499999     0.499999     0.499999
   48     1.000000   180.000000     0.707107     0.000000    -0.707107     0.499999     0.499999     0.499999

 Subroutine IBZKPT returns following result:

 Found     29 irreducible k-points:

 Following reciprocal coordinates:
            Coordinates               Weight
  0.000000  0.000000  0.000000      1.000000
  0.125000  0.000000  0.000000      8.000000
  0.250000  0.000000  0.000000      8.000000
  0.375000  0.000000  0.000000      8.000000
  0.500000  0.000000  0.000000      4.000000
  0.125000  0.125000  0.000000      6.000000
  0.250000  0.125000  0.000000     24.000000
  0.375000  0.125000  0.000000     24.000000
  0.500000  0.125000  0.000000     24.000000
 -0.375000  0.125000  0.000000     24.000000
 -0.250000  0.125000  0.000000     24.000000
 -0.125000  0.125000  0.000000     12.000000
  0.250000  0.250000  0.000000      6.000000
  0.375000  0.250000  0.000000     24.000000
  0.500000  0.250000  0.000000     24.000000
 -0.375000  0.250000  0.000000     24.000000
 -0.250000  0.250000  0.000000     12.000000
  0.375000  0.375000  0.000000      6.000000
  0.500000  0.375000  0.000000     24.000000
 -0.375000  0.375000  0.000000     12.000000
  0.500000  0.500000  0.000000      3.000000
  0.375000  0.250000  0.125000     24.000000
  0.500000  0.250000  0.125000     48.000000
 -0.375000  0.250000  0.125000     24.000000
  0.500000  0.375000  0.125000     24.000000
 -0.375000  0.375000  0.125000     48.000000
 -0.250000  0.375000  0.125000     24.000000
 -0.375000  0.500000  0.125000     12.000000
 -0.250000  0.500000  0.250000      6.000000

 Following cartesian coordinates:
            Coordinates               Weight
  0.000000  0.000000  0.000000      1.000000
 -0.013852  0.013852  0.013852      8.000000
 -0.027703  0.027703  0.027703      8.000000
 -0.041555  0.041555  0.041555      8.000000
 -0.055407  0.055407  0.055407      4.000000
  0.000000  0.000000  0.027703      6.000000
 -0.013852  0.013852  0.041555     24.000000
 -0.027703  0.027703  0.055407     24.000000
 -0.041555  0.041555  0.069259     24.000000
  0.055407 -0.055407 -0.027703     24.000000
  0.041555 -0.041555 -0.013852     24.000000
  0.027703 -0.027703  0.000000     12.000000
  0.000000  0.000000  0.055407      6.000000
 -0.013852  0.013852  0.069259     24.000000
 -0.027703  0.027703  0.083110     24.000000
  0.069259 -0.069259 -0.013852     24.000000
  0.055407 -0.055407  0.000000     12.000000
  0.000000  0.000000  0.083110      6.000000
 -0.013852  0.013852  0.096962     24.000000
  0.083110 -0.083110  0.000000     12.000000
  0.000000  0.000000  0.110814      3.000000
[...]
   0.25000000  0.00000000  0.00000000       0.016
   0.37500000  0.00000000  0.00000000       0.016
   0.50000000  0.00000000  0.00000000       0.008
   0.12500000  0.12500000  0.00000000       0.012
   0.25000000  0.12500000  0.00000000       0.047
   0.37500000  0.12500000  0.00000000       0.047
   0.50000000  0.12500000  0.00000000       0.047
  -0.37500000  0.12500000  0.00000000       0.047
  -0.25000000  0.12500000  0.00000000       0.047
  -0.12500000  0.12500000  0.00000000       0.023
   0.25000000  0.25000000  0.00000000       0.012
   0.37500000  0.25000000  0.00000000       0.047
   0.50000000  0.25000000  0.00000000       0.047
  -0.37500000  0.25000000  0.00000000       0.047
  -0.25000000  0.25000000  0.00000000       0.023
   0.37500000  0.37500000  0.00000000       0.012
   0.50000000  0.37500000  0.00000000       0.047
  -0.37500000  0.37500000  0.00000000       0.023
   0.50000000  0.50000000  0.00000000       0.006
   0.37500000  0.25000000  0.12500000       0.047
   0.50000000  0.25000000  0.12500000       0.094
  -0.37500000  0.25000000  0.12500000       0.047
   0.50000000  0.37500000  0.12500000       0.047
  -0.37500000  0.37500000  0.12500000       0.094
  -0.25000000  0.37500000  0.12500000       0.047
  -0.37500000  0.50000000  0.12500000       0.023
  -0.25000000  0.50000000  0.25000000       0.012

 position of ions in fractional coordinates (direct lattice)
   0.24999934  0.24999934  0.24999934
   0.00000000  0.00000000  0.00000000
   0.49999978  0.49999978  0.49999978
   0.75000022  0.75000022  0.75000022

 position of ions in cartesian coordinates  (Angst):
   2.25603000  2.25603000  2.25603000
   0.00000000  0.00000000  0.00000000
   4.51207000  4.51207000  4.51207000
   6.76811000  6.76811000  6.76811000

 k-point  1 :   0.0000 0.0000 0.0000  plane waves:    4957
 k-point  2 :   0.1250 0.0000 0.0000  plane waves:    4951
 k-point  3 :   0.2500 0.0000 0.0000  plane waves:    4936
 k-point  4 :   0.3750 0.0000 0.0000  plane waves:    4958
 k-point  5 :   0.5000 0.0000 0.0000  plane waves:    4940
 k-point  6 :   0.1250 0.1250 0.0000  plane waves:    4929
 k-point  7 :   0.2500 0.1250 0.0000  plane waves:    4930
 k-point  8 :   0.3750 0.1250 0.0000  plane waves:    4943
 k-point  9 :   0.5000 0.1250 0.0000  plane waves:    4954
 k-point 10 :  -0.3750 0.1250 0.0000  plane waves:    4944
 k-point 11 :  -0.2500 0.1250 0.0000  plane waves:    4929
 k-point 12 :  -0.1250 0.1250 0.0000  plane waves:    4920
 k-point 13 :   0.2500 0.2500 0.0000  plane waves:    4953
 k-point 14 :   0.3750 0.2500 0.0000  plane waves:    4955
 k-point 15 :   0.5000 0.2500 0.0000  plane waves:    4955
 k-point 16 :  -0.3750 0.2500 0.0000  plane waves:    4944
 k-point 17 :  -0.2500 0.2500 0.0000  plane waves:    4948
 k-point 18 :   0.3750 0.3750 0.0000  plane waves:    4929
 k-point 19 :   0.5000 0.3750 0.0000  plane waves:    4940
 k-point 20 :  -0.3750 0.3750 0.0000  plane waves:    4944
 k-point 21 :   0.5000 0.5000 0.0000  plane waves:    4960
 k-point 22 :   0.3750 0.2500 0.1250  plane waves:    4938
 k-point 23 :   0.5000 0.2500 0.1250  plane waves:    4945
 k-point 24 :  -0.3750 0.2500 0.1250  plane waves:    4962
 k-point 25 :   0.5000 0.3750 0.1250  plane waves:    4935
 k-point 26 :  -0.3750 0.3750 0.1250  plane waves:    4957
 k-point 27 :  -0.2500 0.3750 0.1250  plane waves:    4949
 k-point 28 :  -0.3750 0.5000 0.1250  plane waves:    4942
 k-point 29 :  -0.2500 0.5000 0.2500  plane waves:    4988

 maximum and minimum number of plane-waves per node :       719      693

 maximum number of plane-waves:      4988
 maximum index in each direction:
   IXMAX=   12   IYMAX=   11   IZMAX=   11
   IXMIN=  -12   IYMIN=  -12   IZMIN=  -12

 parallel 3D FFT for wavefunctions:
    minimum data exchange during FFTs selected (reduces bandwidth)
 parallel 3D FFT for charge:
    minimum data exchange during FFTs selected (reduces bandwidth)

 Broyden mixing: mesh for mixing (old mesh)
   NGX = 23   NGY = 23   NGZ = 23
  (NGX  = 96   NGY  = 96   NGZ  = 96)
  gives a total of  12167 points

 initial charge density was supplied:
 charge density of overlapping atoms calculated
 number of electron      32.0000000 magnetization
 keeping initial charge density in first step

 Maximum index for augmentation-charges         4634 (set IRDMAX)

 First call to EWALD:  gamma=   0.312
 Maximum number of real-space cells 3x 3x 3
 Maximum number of reciprocal cells 3x 3x 3

--------------------------------------- Iteration      1(   1)  ---------------------------------------

 eigenvalue-minimisations  :  1160
 total energy-change (2. order) : 0.2281629E+03  (-0.1281584E+04)
 number of electron      32.0000000 magnetization
 augmentation part       32.0000000 magnetization

 Free energy of the ion-electron system (eV)
  alpha Z        PSCENC =        93.20389027
  Ewald energy   TEWEN  =     -1521.91983869
  -Hartree energ DENC   =      -398.17613172
  -exchange      EXHF   =         0.00000000
  -V(xc)+E(xc)   XCENC  =        22.24555310
  PAW double counting   =      1598.61849123    -1528.63182258
  entropy T*S    EENTRO =        -0.00347085
  eigenvalues    EBANDS =       -67.81237733
  atomic energy  EATOM  =      2030.63862089
  Solvation  Ediel_sol  =         0.00000000
  free energy    TOTEN  =       228.16291432 eV

  energy without entropy =      228.16638517  energy(sigma->0) =      228.16464975

[...]

 eigenvalue-minimisations  :  1528
 total energy-change (2. order) :-0.2174767E+03  (-0.2122889E+03)
 number of electron      32.0000000 magnetization
 augmentation part       32.0000000 magnetization

[...]

 Broyden mixing:
  rms(total) = 0.43121E+00    rms(broyden)= 0.43121E+00
  rms(prec ) = 0.11958E+01
  weight for this iteration     100.00

[...]

 eigenvalues of (default mixing * dielectric matrix)
  average eigenvalue GAMMA=   1.5840
  1.5840

[...]

 average (electrostatic) potential at core
  the test charge radii are     1.1312  1.1097  1.1712
  (the norm of the test charge is              1.0000)
       1 -51.0160       2 -38.0826       3 -38.0826       4 -88.9681

 E-fermi :   2.1715     XC(G=0):  -7.6211     alpha+bet : -7.4495

 k-point     1 :       0.0000    0.0000    0.0000
  band No.  band energies     occupation
      1     -25.7871      2.00000
      2     -25.7666      2.00000
      3     -21.2746      2.00000
      4      -9.9794      2.00000
      5      -9.9794      2.00000
      6      -9.9794      2.00000
      7      -9.8862      2.00000
      8      -9.8862      2.00000
      9      -9.8862      2.00000
     10      -8.0870      2.00000
     11      -8.0870      2.00000
     12      -8.0870      2.00000
     13      -5.3001      2.00000
     14       1.7652      2.00000
     15       1.7652      2.00000
     16       1.7652      2.00000
     17       2.5390      0.00000
     18       3.7290      0.00000
     19       3.7290      0.00000
     20       4.8134      0.00000

[...]

 soft charge-density along one line, spin component           1
         0         1         2         3         4         5         6         7         8         9
 total charge-density along one line

------------------------ aborting loop because EDIFF is reached ----------------------------------------

  FORCE on cell =-STRESS in cart. coord.  units (eV):
  Direction    XX          YY          ZZ          XY          YZ          ZX
  Alpha Z    93.20389    93.20389    93.20389
  Ewald    -507.30705  -507.30705  -507.30705     0.00013     0.00013     0.00013
  Hartree   128.89859   128.89859   128.89859    -0.00000    -0.00000    -0.00000
  E(xc)    -118.24972  -118.24972  -118.24972     0.00000     0.00000     0.00000
  Local      27.03810    27.03810    27.03810    -0.00008    -0.00008    -0.00008
  n-local     4.59209     4.72652     3.22708     0.86372    -0.70523     0.48263
  augment   -32.32699   -32.32699   -32.32699     0.00000     0.00000     0.00000
  Kinetic   405.55342   405.12906   403.39506     1.71722    -1.46457     1.00557
  Fock        0.00000     0.00000     0.00000     0.00000     0.00000     0.00000
  Total       0.13123     0.13123     0.13123     0.00000     0.00000    -0.00000
  in kB       1.14444     1.14444     1.14444     0.00000     0.00000    -0.00000

 VOLUME and BASIS-vectors are now :
  energy-cutoff  :      520.00
  volume of cell :      183.72
      direct lattice vectors                 reciprocal lattice vectors
     0.000000000  4.512072000  4.512072000    -0.110813835  0.110813835  0.110813835
     4.512072000  0.000000000  4.512072000     0.110813835 -0.110813835  0.110813835
     4.512072000  4.512072000  0.000000000     0.110813835  0.110813835 -0.110813835

[...]

 FORCES acting on ions
    electron-ion (+dipol)            ewald-force                    non-local-force                 convergence-correction
   0.157E-02 0.157E-02 0.140E-02   0.384E-03 0.384E-03 0.384E-03   0.635E-20 0.000E+00 -.424E-21   -.789E-05 -.789E-05 -.676E-05
   -.208E-02 -.208E-02 -.220E-02   -.183E-03 -.183E-03 -.183E-03   -.347E-17 -.347E-17 -.390E-17   0.489E-05 0.489E-05 0.489E-05
   -.777E-03 -.777E-03 -.900E-03   0.591E-05 0.591E-05 0.591E-05   0.347E-17 0.173E-17 0.390E-17   -.905E-06 -.905E-06 -.902E-06
   -.752E-03 -.752E-03 -.699E-03   -.207E-03 -.207E-03 -.207E-03   0.339E-20 0.169E-20 0.000E+00   0.229E-05 0.229E-05 0.176E-05
   -.203E-02 -.203E-02 -.239E-02   -.335E-15 -.655E-16 0.953E-15   0.974E-20 -.173E-17 -.424E-21   -.162E-05 -.162E-05 -.101E-05

 POSITION                                       TOTAL-FORCE (eV/Angst)
      2.25603      2.25603      2.25603        -0.000000      0.000000     -0.000000
      0.00000      0.00000      0.00000        -0.000000     -0.000000     -0.000000
      4.51207      4.51207      4.51207         0.000000      0.000000      0.000000
      6.76811      6.76811      6.76811         0.000000      0.000000     -0.000000
    total drift:                               -0.002036     -0.002036     -0.002395

  FREE ENERGIE OF THE ION-ELECTRON SYSTEM (eV)
  free  energy   TOTEN  =        -8.26705823 eV

  energy  without entropy=       -8.26705823  energy(sigma->0) =       -8.26705823

[...]

 d Force = 0.0000000E+00[ 0.000E+00, 0.000E+00]  d Energy = 0.4736266E-03-0.474E-03
 d Force = 0.0000000E+00[ 0.000E+00, 0.000E+00]  d Ewald  =-0.2405008E+01 0.241E+01

 Steepest descent step on ions:
 trial-energy change:   -0.000474  1 .order   -0.000473   -0.000623   -0.000324
  (g-gl).g = 0.623E-03      g.g   = 0.623E-03  gl.gl    = 0.000E+00
 g(Force)  = 0.560E-39   g(Stress)= 0.623E-03 ortho     = 0.000E+00
 gamma     =   0.00000
 trial     =   1.00000
 opt step  =   2.08186  (harmonic =   2.08186) maximal distance =0.00000000
 next E    =    -8.267707   (d E  =  -0.00065)

[...]

 eigenvalue-minimisations  :  1832
 total energy-change (2. order) :-0.2614296E-04  (-0.3173446E-04)
 number of electron      32.0000002 magnetization
 augmentation part       -3.1542768 magnetization

 Broyden mixing:
  rms(total) = 0.19160E-02    rms(broyden)= 0.19159E-02
  rms(prec ) = 0.26334E-02
  weight for this iteration     100.00

 eigenvalues of (default mixing * dielectric matrix)
  average eigenvalue GAMMA=   1.4546
  1.5861  1.3888  1.3888

[...]

--------------------------------------- Iteration      3(   5)  ---------------------------------------

 eigenvalue-minimisations  :   848
 total energy-change (2. order) : 0.7581252E-07  (-0.8826614E-06)
 number of electron      32.0000002 magnetization
 augmentation part       -3.1542768 magnetization

 Free energy of the ion-electron system (eV)
  alpha Z        PSCENC =        92.28858994
  Ewald energy   TEWEN  =     -1516.92148236
  -Hartree energ DENC   =      -389.17926546
  -exchange      EXHF   =         0.00000000
  -V(xc)+E(xc)   XCENC  =        22.33281705
  PAW double counting   =      1753.99251349    -1684.74239872
  entropy T*S    EENTRO =        -0.00000000
  eigenvalues    EBANDS =      -316.67711085
  atomic energy  EATOM  =      2030.63862089
  Solvation  Ediel_sol  =         0.00000000
  free energy    TOTEN  =        -8.26771601 eV

  energy without entropy =       -8.26771601  energy(sigma->0) =       -8.26771601

 average (electrostatic) potential at core
  the test charge radii are     1.1312  1.1097  1.1712
  (the norm of the test charge is              1.0000)
       1 -51.0692       2 -38.1355       3 -38.1355       4 -89.0240

 E-fermi :   2.1187     XC(G=0):  -7.5851     alpha+bet : -7.3764

[...]

 k-point    29 :      -0.2500    0.5000    0.2500
  band No.  band energies     occupation
      1     -25.8293      2.00000
      2     -25.8293      2.00000
      3     -21.3307      2.00000
      4     -10.1405      2.00000
      5     -10.0515      2.00000
      6     -10.0067      2.00000
      7     -10.0067      2.00000
      8      -9.8851      2.00000
      9      -9.8829      2.00000
     10      -8.1397      2.00000
     11      -8.1397      2.00000
     12      -8.0874      2.00000
     13      -5.1804      2.00000
     14       1.3109      2.00000
     15       1.3109      2.00000
     16       1.5792      2.00000
     17       3.9039      0.00000
     18       4.2760      0.00000
     19       4.2760      0.00000
     20       4.9644      0.00000

 soft charge-density along one line, spin component           1
         0         1         2         3         4         5         6         7         8         9
 total charge-density along one line

------------------------ aborting loop because EDIFF is reached ----------------------------------------

  FORCE on cell =-STRESS in cart. coord.  units (eV):
  Direction    XX          YY          ZZ          XY          YZ          ZX
  Alpha Z    92.28859    92.28859    92.28859
  Ewald    -505.64093  -505.64093  -505.64093     0.00013     0.00013     0.00013
  Hartree   129.72195   129.72195   129.72195    -0.00000    -0.00000    -0.00000
  E(xc)    -118.20723  -118.20723  -118.20723     0.00000     0.00000     0.00000
  Local      25.50061    25.50061    25.50061    -0.00008    -0.00008    -0.00008
  n-local     4.56848     4.70290     3.19261     0.88054    -0.72121     0.49188
  augment   -32.32861   -32.32861   -32.32861     0.00000     0.00000     0.00000
  Kinetic   405.37158   404.96490   403.20550     1.72062    -1.46676     1.00679
  Fock        0.00000     0.00000     0.00000     0.00000     0.00000     0.00000
  Total       0.00305     0.00305     0.00305     0.00000     0.00000    -0.00000
  in kB       0.02632     0.02632     0.02632     0.00000     0.00000    -0.00000

 VOLUME and BASIS-vectors are now :
  energy-cutoff  :      520.00
  volume of cell :      185.54
      direct lattice vectors                 reciprocal lattice vectors
     0.000000000  4.526939575  4.526939575    -0.110449895  0.110449895  0.110449895
     4.526939575  0.000000000  4.526939575     0.110449895 -0.110449895  0.110449895
     4.526939575  4.526939575 -0.000000000     0.110449895  0.110449895 -0.110449895

  length of vectors
     6.402059343  6.402059343  6.402059343     0.191304830  0.191304830  0.191304830

 FORCES acting on ions
    electron-ion (+dipol)            ewald-force                    non-local-force                 convergence-correction
   0.158E-02 0.158E-02 0.141E-02   0.382E-03 0.382E-03 0.382E-03   0.000E+00 -.720E-20 -.127E-20   0.155E-08 0.155E-08 0.544E-08
   -.209E-02 -.209E-02 -.221E-02   -.182E-03 -.182E-03 -.182E-03   0.260E-16 0.226E-16 0.195E-16   -.381E-06 -.381E-06 -.411E-06
   -.781E-03 -.781E-03 -.905E-03   0.587E-05 0.587E-05 0.587E-05   -.243E-16 -.208E-16 -.178E-16   -.187E-06 -.187E-06 -.218E-06
   -.761E-03 -.761E-03 -.710E-03   -.205E-03 -.205E-03 -.205E-03   -.593E-20 0.339E-20 0.254E-20   0.342E-07 0.342E-07 0.355E-07
   -.205E-02 -.205E-02 -.241E-02   0.370E-15 -.155E-15 0.628E-16   0.173E-17 0.173E-17 0.174E-17   -.532E-06 -.532E-06 -.588E-06

 POSITION                                       TOTAL-FORCE (eV/Angst)
      2.26346      2.26346      2.26346        -0.000000     -0.000000     -0.000000
     -0.00000     -0.00000     -0.00000         0.000000      0.000000      0.000000
      4.52694      4.52694      4.52694        -0.000000     -0.000000     -0.000000
      6.79041      6.79041      6.79041        -0.000000      0.000000      0.000000
    total drift:                               -0.002049     -0.002049     -0.002415

  FREE ENERGIE OF THE ION-ELECTRON SYSTEM (eV)
  free  energy   TOTEN  =        -8.26771601 eV

  energy  without entropy=       -8.26771601  energy(sigma->0) =       -8.26771601

 d Force = 0.0000000E+00[ 0.000E+00, 0.000E+00]  d Energy = 0.1841512E-03-0.184E-03
 d Force = 0.0000000E+00[ 0.000E+00, 0.000E+00]  d Ewald  =-0.2593348E+01 0.259E+01

 reached required accuracy - stopping structural energy minimisation