 vasp.5.4.4.18Apr17-6-g9f103f2a35 (build Jun 23 2019 17:35:09) complex

 executed on             LinuxIFC date 2020.01.14  23:12:37

 INCAR:
 POTCAR:    PAW_PBE Bi_d 06Sep2000
 POTCAR:    PAW_PBE Li_sv 10Sep2004
 POTCAR:    PAW_PBE Na_pv 19Sep2006

 POTCAR:    PAW_PBE Bi_d 06Sep2000
   VRHFIN =Bi:

   TITEL  = PAW_PBE Bi_d 06Sep2000
   POMASS =  208.980; ZVAL   =   15.000    mass and valenz
   ENMAX  =  242.839; ENMIN  =  182.129 eV

 POTCAR:    PAW_PBE Li_sv 10Sep2004
   VRHFIN =Li: 1s2s2p

   TITEL  = PAW_PBE Li_sv 10Sep2004
   POMASS =    7.010; ZVAL   =    3.000    mass and valenz
   ENMAX  =  499.034; ENMIN  =  374.276 eV

 POTCAR:    PAW_PBE Na_pv 19Sep2006
   VRHFIN =Na: p6s1

   TITEL  = PAW_PBE Na_pv 19Sep2006
   POMASS =   22.990; ZVAL   =    7.000    mass and valenz
   ENMAX  =  259.561; ENMIN  =  194.671 eV

  PAW_PBE Bi_d 06Sep2000                :
  PAW_PBE Li_sv 10Sep2004               :
  PAW_PBE Na_pv 19Sep2006               :

 POSCAR: Na Bi Li
  positions in direct lattice
 exchange correlation table for  LEXCH =        8
   RHO(1)=    0.500       N(1)  =     2000
   RHO(2)=  100.500       N(2)  =     4000

 ion  position               nearest neighbor table
   1  0.250  0.250  0.250-   3 2.98   2 2.98   2 2.98   2 2.98   2 2.98   3 2.98   3 2.98   3 2.98

   2  0.000  0.000  0.000-   1 2.98   1 2.98   1 2.98   1 2.98
   3  0.500  0.500  0.500-   1 2.98   1 2.98   1 2.98   1 2.98
   4  0.750  0.750  0.750-

  LATTYP: Found a face centered cubic cell.
 ALAT       =     6.8733560000

  Lattice vectors:

 A1 = (   0.0000000000,   3.4366780000,   3.4366780000)
 A2 = (   3.4366780000,   0.0000000000,   3.4366780000)
 A3 = (   3.4366780000,   3.4366780000,   0.0000000000)

Analysis of symmetry for initial positions (statically):
 Subroutine PRICEL returns:
 Original cell was already a primitive cell.

 Routine SETGRP: Setting up the symmetry group for a
 face centered cubic supercell.

 Subroutine GETGRP returns: Found 48 space group operations
 (whereof 24 operations were pure point group operations)
 out of a pool of 48 trial point group operations.

The static configuration has the point symmetry T_d .
 The point group associated with its full space group is O_h .

Analysis of symmetry for dynamics (positions and initial velocities):
 Subroutine PRICEL returns:
 Original cell was already a primitive cell.

 Routine SETGRP: Setting up the symmetry group for a
 face centered cubic supercell.

 Subroutine GETGRP returns: Found 48 space group operations
 (whereof 24 operations were pure point group operations)
 out of a pool of 48 trial point group operations.

The dynamic configuration has the point symmetry T_d .
 The point group associated with its full space group is O_h .

 Subroutine INISYM returns: Found 48 space group operations
 (whereof 24 operations are pure point group operations),
 and found     1 'primitive' translations

 KPOINTS: KPOINTS

Automatic generation of k-mesh.
Space group operators:
 irot       det(A)        alpha          n_x          n_y          n_z        tau_x        tau_y        tau_z
    1     1.000000     0.000000     1.000000     0.000000     0.000000     0.000000     0.000000     0.000000
    2     1.000000   120.000000    -0.577350    -0.577350    -0.577350     0.000000     0.000000     0.000000
    3     1.000000   120.000000     0.577350     0.577350     0.577350     0.000000     0.000000     0.000000
    4    -1.000000    90.000000     0.000000     0.000000    -1.000000     0.000000     0.000000     0.000000
    5    -1.000000   180.000000     0.000000     0.707107     0.707107     0.000000     0.000000     0.000000
    6    -1.000000    90.000000     0.000000     1.000000     0.000000     0.000000     0.000000     0.000000
    7     1.000000   180.000000     0.000000     0.000000     1.000000     0.000000     0.000000     0.000000
    8     1.000000   120.000000    -0.577350     0.577350     0.577350     0.000000     0.000000     0.000000
    9     1.000000   120.000000    -0.577350     0.577350    -0.577350     0.000000     0.000000     0.000000
   10    -1.000000    90.000000     0.000000     0.000000     1.000000     0.000000     0.000000     0.000000
   11    -1.000000    90.000000    -1.000000     0.000000     0.000000     0.000000     0.000000     0.000000
   12    -1.000000   180.000000     0.707107     0.000000     0.707107     0.000000     0.000000     0.000000
   13     1.000000   120.000000     0.577350    -0.577350     0.577350     0.000000     0.000000     0.000000
   14     1.000000   120.000000    -0.577350    -0.577350     0.577350     0.000000     0.000000     0.000000
   15     1.000000   180.000000     1.000000     0.000000     0.000000     0.000000     0.000000     0.000000
   16    -1.000000    90.000000     0.000000    -1.000000     0.000000     0.000000     0.000000     0.000000
   17    -1.000000   180.000000     0.707107     0.707107     0.000000     0.000000     0.000000     0.000000
   18    -1.000000    90.000000     1.000000     0.000000     0.000000     0.000000     0.000000     0.000000
   19     1.000000   120.000000     0.577350    -0.577350    -0.577350     0.000000     0.000000     0.000000
   20     1.000000   180.000000     0.000000     1.000000     0.000000     0.000000     0.000000     0.000000
   21     1.000000   120.000000     0.577350     0.577350    -0.577350     0.000000     0.000000     0.000000
   22    -1.000000   180.000000     0.000000    -0.707107     0.707107     0.000000     0.000000     0.000000
   23    -1.000000   180.000000     0.707107    -0.707107     0.000000     0.000000     0.000000     0.000000
   24    -1.000000   180.000000     0.707107     0.000000    -0.707107     0.000000     0.000000     0.000000
   25    -1.000000     0.000000     1.000000     0.000000     0.000000     0.500000     0.500000     0.500000
   26    -1.000000   120.000000    -0.577350    -0.577350    -0.577350     0.500000     0.500000     0.500000
   27    -1.000000   120.000000     0.577350     0.577350     0.577350     0.500000     0.500000     0.500000
   28     1.000000    90.000000     0.000000     0.000000    -1.000000     0.500000     0.500000     0.500000
   29     1.000000   180.000000     0.000000     0.707107     0.707107     0.500000     0.500000     0.500000
   30     1.000000    90.000000     0.000000     1.000000     0.000000     0.500000     0.500000     0.500000
   31    -1.000000   180.000000     0.000000     0.000000     1.000000     0.500000     0.500000     0.500000
   32    -1.000000   120.000000    -0.577350     0.577350     0.577350     0.500000     0.500000     0.500000
   33    -1.000000   120.000000    -0.577350     0.577350    -0.577350     0.500000     0.500000     0.500000
   34     1.000000    90.000000     0.000000     0.000000     1.000000     0.500000     0.500000     0.500000
   35     1.000000    90.000000    -1.000000     0.000000     0.000000     0.500000     0.500000     0.500000
   36     1.000000   180.000000     0.707107     0.000000     0.707107     0.500000     0.500000     0.500000
   37    -1.000000   120.000000     0.577350    -0.577350     0.577350     0.500000     0.500000     0.500000
   38    -1.000000   120.000000    -0.577350    -0.577350     0.577350     0.500000     0.500000     0.500000
   39    -1.000000   180.000000     1.000000     0.000000     0.000000     0.500000     0.500000     0.500000
   40     1.000000    90.000000     0.000000    -1.000000     0.000000     0.500000     0.500000     0.500000
   41     1.000000   180.000000     0.707107     0.707107     0.000000     0.500000     0.500000     0.500000
   42     1.000000    90.000000     1.000000     0.000000     0.000000     0.500000     0.500000     0.500000
   43    -1.000000   120.000000     0.577350    -0.577350    -0.577350     0.500000     0.500000     0.500000
   44    -1.000000   180.000000     0.000000     1.000000     0.000000     0.500000     0.500000     0.500000
   45    -1.000000   120.000000     0.577350     0.577350    -0.577350     0.500000     0.500000     0.500000
   46     1.000000   180.000000     0.000000    -0.707107     0.707107     0.500000     0.500000     0.500000
   47     1.000000   180.000000     0.707107    -0.707107     0.000000     0.500000     0.500000     0.500000
   48     1.000000   180.000000     0.707107     0.000000    -0.707107     0.500000     0.500000     0.500000

 Subroutine IBZKPT returns following result:

 Found     29 irreducible k-points:

 Following reciprocal coordinates:
            Coordinates               Weight
  0.000000  0.000000  0.000000      1.000000
  0.125000  0.000000  0.000000      8.000000
  0.250000  0.000000  0.000000      8.000000
  0.375000  0.000000  0.000000      8.000000
  0.500000  0.000000  0.000000      4.000000
  0.125000  0.125000  0.000000      6.000000
  0.250000  0.125000  0.000000     24.000000
  0.375000  0.125000  0.000000     24.000000
  0.500000  0.125000  0.000000     24.000000
 -0.375000  0.125000  0.000000     24.000000
 -0.250000  0.125000  0.000000     24.000000
 -0.125000  0.125000  0.000000     12.000000
  0.250000  0.250000  0.000000      6.000000
  0.375000  0.250000  0.000000     24.000000
  0.500000  0.250000  0.000000     24.000000
 -0.375000  0.250000  0.000000     24.000000
 -0.250000  0.250000  0.000000     12.000000
  0.375000  0.375000  0.000000      6.000000
  0.500000  0.375000  0.000000     24.000000
 -0.375000  0.375000  0.000000     12.000000
  0.500000  0.500000  0.000000      3.000000
  0.375000  0.250000  0.125000     24.000000
  0.500000  0.250000  0.125000     48.000000
 -0.375000  0.250000  0.125000     24.000000
  0.500000  0.375000  0.125000     24.000000
 -0.375000  0.375000  0.125000     48.000000
 -0.250000  0.375000  0.125000     24.000000
 -0.375000  0.500000  0.125000     12.000000
 -0.250000  0.500000  0.250000      6.000000

 Following cartesian coordinates:
            Coordinates               Weight
  0.000000  0.000000  0.000000      1.000000
 -0.018186  0.018186  0.018186      8.000000
 -0.036372  0.036372  0.036372      8.000000
 -0.054559  0.054559  0.054559      8.000000
 -0.072745  0.072745  0.072745      4.000000
  0.000000  0.000000  0.036372      6.000000
 -0.018186  0.018186  0.054559     24.000000
 -0.036372  0.036372  0.072745     24.000000
 -0.054559  0.054559  0.090931     24.000000
  0.072745 -0.072745 -0.036372     24.000000
  0.054559 -0.054559 -0.018186     24.000000
  0.036372 -0.036372  0.000000     12.000000
  0.000000  0.000000  0.072745      6.000000
 -0.018186  0.018186  0.090931     24.000000
 -0.036372  0.036372  0.109117     24.000000
  0.090931 -0.090931 -0.018186     24.000000
  0.072745 -0.072745  0.000000     12.000000
  0.000000  0.000000  0.109117      6.000000
 -0.018186  0.018186  0.127303     24.000000
  0.109117 -0.109117  0.000000     12.000000
  0.000000  0.000000  0.145489      3.000000
  0.000000  0.036372  0.072745     24.000000
 -0.018186  0.054559  0.090931     48.000000
  0.109117 -0.072745 -0.036372     24.000000
 -0.000000  0.036372  0.109117     24.000000
  0.127303 -0.090931 -0.018186     48.000000
  0.109117 -0.072745 -0.000000     24.000000
  0.145489 -0.109117  0.000000     12.000000
[...]
   0.25000000  0.12500000  0.00000000       0.047
   0.37500000  0.12500000  0.00000000       0.047
   0.50000000  0.12500000  0.00000000       0.047
  -0.37500000  0.12500000  0.00000000       0.047
  -0.25000000  0.12500000  0.00000000       0.047
  -0.12500000  0.12500000  0.00000000       0.023
   0.25000000  0.25000000  0.00000000       0.012
   0.37500000  0.25000000  0.00000000       0.047
   0.50000000  0.25000000  0.00000000       0.047
  -0.37500000  0.25000000  0.00000000       0.047
  -0.25000000  0.25000000  0.00000000       0.023
   0.37500000  0.37500000  0.00000000       0.012
   0.50000000  0.37500000  0.00000000       0.047
  -0.37500000  0.37500000  0.00000000       0.023
   0.50000000  0.50000000  0.00000000       0.006
   0.37500000  0.25000000  0.12500000       0.047
   0.50000000  0.25000000  0.12500000       0.094
  -0.37500000  0.25000000  0.12500000       0.047
   0.50000000  0.37500000  0.12500000       0.047
  -0.37500000  0.37500000  0.12500000       0.094
  -0.25000000  0.37500000  0.12500000       0.047
  -0.37500000  0.50000000  0.12500000       0.023
  -0.25000000  0.50000000  0.25000000       0.012

 position of ions in fractional coordinates (direct lattice)
   0.25000015  0.25000015  0.25000015
   0.00000000  0.00000000  0.00000000
   0.49999884  0.49999884  0.49999884
   0.75000044  0.75000044  0.75000044

 position of ions in cartesian coordinates  (Angst):
   1.71834000  1.71834000  1.71834000
   0.00000000  0.00000000  0.00000000
   3.43667000  3.43667000  3.43667000
   5.15502000  5.15502000  5.15502000

 k-point  1 :   0.0000 0.0000 0.0000  plane waves:    2133
 k-point  2 :   0.1250 0.0000 0.0000  plane waves:    2169
 k-point  3 :   0.2500 0.0000 0.0000  plane waves:    2178
 k-point  4 :   0.3750 0.0000 0.0000  plane waves:    2184
 k-point  5 :   0.5000 0.0000 0.0000  plane waves:    2186
 k-point  6 :   0.1250 0.1250 0.0000  plane waves:    2169
 k-point  7 :   0.2500 0.1250 0.0000  plane waves:    2176
 k-point  8 :   0.3750 0.1250 0.0000  plane waves:    2162
 k-point  9 :   0.5000 0.1250 0.0000  plane waves:    2182
 k-point 10 :  -0.3750 0.1250 0.0000  plane waves:    2193
 k-point 11 :  -0.2500 0.1250 0.0000  plane waves:    2183
 k-point 12 :  -0.1250 0.1250 0.0000  plane waves:    2183
 k-point 13 :   0.2500 0.2500 0.0000  plane waves:    2181
 k-point 14 :   0.3750 0.2500 0.0000  plane waves:    2181
 k-point 15 :   0.5000 0.2500 0.0000  plane waves:    2188
 k-point 16 :  -0.3750 0.2500 0.0000  plane waves:    2194
 k-point 17 :  -0.2500 0.2500 0.0000  plane waves:    2181
 k-point 18 :   0.3750 0.3750 0.0000  plane waves:    2185
 k-point 19 :   0.5000 0.3750 0.0000  plane waves:    2187
 k-point 20 :  -0.3750 0.3750 0.0000  plane waves:    2201
 k-point 21 :   0.5000 0.5000 0.0000  plane waves:    2200
 k-point 22 :   0.3750 0.2500 0.1250  plane waves:    2176
 k-point 23 :   0.5000 0.2500 0.1250  plane waves:    2194
 k-point 24 :  -0.3750 0.2500 0.1250  plane waves:    2204
 k-point 25 :   0.5000 0.3750 0.1250  plane waves:    2183
 k-point 26 :  -0.3750 0.3750 0.1250  plane waves:    2194
 k-point 27 :  -0.2500 0.3750 0.1250  plane waves:    2198
 k-point 28 :  -0.3750 0.5000 0.1250  plane waves:    2196
 k-point 29 :  -0.2500 0.5000 0.2500  plane waves:    2208

 maximum and minimum number of plane-waves per node :       322      295

 maximum number of plane-waves:      2208
 maximum index in each direction:
   IXMAX=    9   IYMAX=    9   IZMAX=    9
   IXMIN=   -9   IYMIN=   -9   IZMIN=   -9

 parallel 3D FFT for wavefunctions:
    minimum data exchange during FFTs selected (reduces bandwidth)
 parallel 3D FFT for charge:
    minimum data exchange during FFTs selected (reduces bandwidth)

 Broyden mixing: mesh for mixing (old mesh)
   NGX = 19   NGY = 19   NGZ = 19
  (NGX  = 72   NGY  = 72   NGZ  = 72)
  gives a total of   6859 points

 initial charge density was supplied:
 charge density of overlapping atoms calculated
 number of electron      28.0000000 magnetization
 keeping initial charge density in first step

 Maximum index for augmentation-charges         3560 (set IRDMAX)

 First call to EWALD:  gamma=   0.409
 Maximum number of real-space cells 3x 3x 3
 Maximum number of reciprocal cells 3x 3x 3

--------------------------------------- Iteration      1(   1)  ---------------------------------------

 eigenvalue-minimisations  :  1044
 total energy-change (2. order) : 0.2276870E+03  (-0.1434510E+04)
 number of electron      28.0000000 magnetization
 augmentation part       28.0000000 magnetization

 Free energy of the ion-electron system (eV)
  alpha Z        PSCENC =        59.72485723
  Ewald energy   TEWEN  =     -1884.41398682
  -Hartree energ DENC   =      -861.06295420
  -exchange      EXHF   =         0.00000000
  -V(xc)+E(xc)   XCENC  =        98.70397757
  PAW double counting   =      2337.22285842    -2427.02081637
  entropy T*S    EENTRO =        -0.00089117
  eigenvalues    EBANDS =      -226.25425226
  atomic energy  EATOM  =      3130.78817564
  Solvation  Ediel_sol  =         0.00000000
  free energy    TOTEN  =       227.68696804 eV

  energy without entropy =      227.68785921  energy(sigma->0) =      227.68741363

[...]

 eigenvalue-minimisations  :  1048
 total energy-change (2. order) :-0.2186618E+03  (-0.2157959E+03)
 number of electron      28.0000000 magnetization
 augmentation part       28.0000000 magnetization

[...]

 Broyden mixing:
  rms(total) = 0.20461E+00    rms(broyden)= 0.20447E+00
  rms(prec ) = 0.56134E+00
  weight for this iteration     100.00

[...]

 eigenvalues of (default mixing * dielectric matrix)
  average eigenvalue GAMMA=   1.9980
  1.9980

[...]

 average (electrostatic) potential at core
  the test charge radii are     1.0856  0.7079  0.9254
  (the norm of the test charge is              1.0000)
       1-105.9162       2 -61.6863       3 -61.6863       4 -46.3278

 E-fermi :   4.2165     XC(G=0):  -8.7921     alpha+bet :-10.6464

 k-point     1 :       0.0000    0.0000    0.0000
  band No.  band energies     occupation
      1     -42.6014      2.00000
      2     -42.5966      2.00000
      3     -20.5306      2.00000
      4     -20.5306      2.00000
      5     -20.5306      2.00000
      6     -17.7479      2.00000
      7     -17.7479      2.00000
      8     -17.7479      2.00000
      9     -17.7355      2.00000
     10     -17.7355      2.00000
     11      -6.5339      2.00000
     12       4.0303      2.00000
     13       4.0304      2.00000
     14       4.0304      2.00000
     15       4.6796      0.00000
     16       6.6007      0.00000
     17       6.6008      0.00000
     18       6.6008      0.00000

[...]

 soft charge-density along one line, spin component           1
         0         1         2         3         4         5         6         7         8         9
 total charge-density along one line

------------------------ aborting loop because EDIFF is reached ----------------------------------------

  FORCE on cell =-STRESS in cart. coord.  units (eV):
  Direction    XX          YY          ZZ          XY          YZ          ZX
  Alpha Z    59.72486    59.72486    59.72486
  Ewald    -628.13836  -628.13836  -628.13836     0.00059     0.00059     0.00059
  Hartree   283.60340   283.60340   283.60340     0.00014     0.00014     0.00014
  E(xc)    -137.83091  -137.83091  -137.83091     0.00004     0.00004     0.00004
  Local    -112.87292  -112.87292  -112.87292    -0.00082    -0.00082    -0.00082
  n-local    52.58276    51.86777    52.38571     2.02185    -1.51321     0.86614
  augment   211.99104   211.99104   211.99104     0.00016     0.00016     0.00016
  Kinetic   273.61514   273.00414   269.54709     3.00999    -1.64438     1.31717
  Fock        0.00000     0.00000     0.00000     0.00000     0.00000     0.00000
  Total       0.81131     0.81131     0.81131    -0.00000     0.00000    -0.00000
  in kB      16.01220    16.01220    16.01220    -0.00000     0.00000    -0.00000

 VOLUME and BASIS-vectors are now :
  energy-cutoff  :      520.00
  volume of cell :       81.18
      direct lattice vectors                 reciprocal lattice vectors
     0.000000000  3.436678000  3.436678000    -0.145489336  0.145489336  0.145489336
     3.436678000  0.000000000  3.436678000     0.145489336 -0.145489336  0.145489336
     3.436678000  3.436678000  0.000000000     0.145489336  0.145489336 -0.145489336

[...]

 FORCES acting on ions
    electron-ion (+dipol)            ewald-force                    non-local-force                 convergence-correction
   -.393E-03 -.393E-03 -.293E-03   -.178E-03 -.178E-03 -.178E-03   -.609E-21 0.450E-21 -.212E-21   0.765E-06 0.765E-06 0.448E-06
   0.199E-03 0.199E-03 0.211E-03   0.267E-04 0.267E-04 0.267E-04   -.217E-18 -.867E-18 0.114E-17   0.361E-06 0.361E-06 0.362E-06
   0.337E-02 0.337E-02 0.338E-02   0.526E-03 0.526E-03 0.526E-03   0.217E-18 0.152E-17 -.867E-18   -.578E-06 -.578E-06 -.576E-06
   -.365E-03 -.365E-03 -.390E-03   -.374E-03 -.374E-03 -.374E-03   0.127E-20 -.127E-20 0.169E-20   0.998E-06 0.998E-06 0.118E-05
   0.281E-02 0.281E-02 0.291E-02   -.707E-15 0.104E-14 -.207E-14   0.662E-21 0.650E-18 0.273E-18   0.155E-05 0.155E-05 0.141E-05

 POSITION                                       TOTAL-FORCE (eV/Angst)
      1.71834      1.71834      1.71834        -0.000000     -0.000000      0.000000
      0.00000      0.00000      0.00000         0.000000     -0.000000     -0.000000
      3.43667      3.43667      3.43667        -0.000000      0.000000      0.000000
      5.15502      5.15502      5.15502         0.000000      0.000000     -0.000000
    total drift:                                0.002812      0.002812      0.002913

  FREE ENERGIE OF THE ION-ELECTRON SYSTEM (eV)
  free  energy   TOTEN  =       -10.99961371 eV

  energy  without entropy=      -10.99961371  energy(sigma->0) =      -10.99961371

[...]

 d Force = 0.0000000E+00[ 0.000E+00, 0.000E+00]  d Energy = 0.1681189E-01-0.168E-01
 d Force = 0.0000000E+00[ 0.000E+00, 0.000E+00]  d Ewald  =-0.1826020E+02 0.183E+02

 Steepest descent step on ions:
 trial-energy change:   -0.016812  1 .order   -0.017007   -0.023816   -0.010197
  (g-gl).g = 0.238E-01      g.g   = 0.238E-01  gl.gl    = 0.000E+00
 g(Force)  = 0.380E-39   g(Stress)= 0.238E-01 ortho     = 0.000E+00
 gamma     =   0.00000
 trial     =   1.00000
 opt step  =   1.89410  (harmonic =   1.74879) maximal distance =0.00000000
 next E    =   -11.020845   (d E  =  -0.02123)

[...]

 d Force = 0.0000000E+00[ 0.000E+00, 0.000E+00]  d Energy = 0.7470147E-05-0.747E-05
 d Force = 0.0000000E+00[ 0.000E+00, 0.000E+00]  d Ewald  = 0.1073621E+01-0.107E+01

[...]

 d Force = 0.0000000E+00[ 0.000E+00, 0.000E+00]  d Energy = 0.1609267E-05-0.161E-05
 d Force = 0.0000000E+00[ 0.000E+00, 0.000E+00]  d Ewald  =-0.4895460E+00 0.490E+00

[...]

 eigenvalue-minimisations  :   532
 total energy-change (2. order) :-0.7147746E-06  (-0.7170184E-07)
 number of electron      27.9999993 magnetization
 augmentation part       12.2352407 magnetization

 Broyden mixing:
  rms(total) = 0.34205E-04    rms(broyden)= 0.34156E-04
  rms(prec ) = 0.85728E-04
  weight for this iteration     100.00

 eigenvalues of (default mixing * dielectric matrix)
  average eigenvalue GAMMA=   1.7772
  1.4430  1.4430  2.4456

[...]

--------------------------------------- Iteration      6(   5)  ---------------------------------------

 eigenvalue-minimisations  :   532
 total energy-change (2. order) : 0.3753030E-07  (-0.2526088E-07)
 number of electron      27.9999993 magnetization
 augmentation part       12.2352407 magnetization

 Free energy of the ion-electron system (eV)
  alpha Z        PSCENC =        56.58729684
  Ewald energy   TEWEN  =     -1850.82033200
  -Hartree energ DENC   =      -871.61633866
  -exchange      EXHF   =         0.00000000
  -V(xc)+E(xc)   XCENC  =        98.11024203
  PAW double counting   =      2475.52565044    -2568.87989157
  entropy T*S    EENTRO =        -0.00000000
  eigenvalues    EBANDS =      -480.71561409
  atomic energy  EATOM  =      3130.78817564
  Solvation  Ediel_sol  =         0.00000000
  free energy    TOTEN  =       -11.02081137 eV

  energy without entropy =      -11.02081137  energy(sigma->0) =      -11.02081137

 average (electrostatic) potential at core
  the test charge radii are     1.0856  0.7079  0.9254
  (the norm of the test charge is              1.0000)
       1-106.2704       2 -62.1224       3 -62.1224       4 -46.7216

 E-fermi :   3.8191     XC(G=0):  -8.5901     alpha+bet :-10.0871

[...]

 k-point    29 :      -0.2500    0.5000    0.2500
  band No.  band energies     occupation
      1     -43.0357      2.00000
      2     -43.0357      2.00000
      3     -20.9235      2.00000
      4     -20.9234      2.00000
      5     -20.9234      2.00000
      6     -18.0900      2.00000
      7     -18.0900      2.00000
      8     -18.0873      2.00000
      9     -18.0827      2.00000
     10     -18.0800      2.00000
     11      -6.2492      2.00000
     12       1.1579      2.00000
     13       1.1579      2.00000
     14       1.3232      2.00000
     15       6.4387      0.00000
     16       6.6256      0.00000
     17       7.8720      0.00000
     18       7.8721      0.00000

 soft charge-density along one line, spin component           1
         0         1         2         3         4         5         6         7         8         9
 total charge-density along one line

------------------------ aborting loop because EDIFF is reached ----------------------------------------

  FORCE on cell =-STRESS in cart. coord.  units (eV):
  Direction    XX          YY          ZZ          XY          YZ          ZX
  Alpha Z    56.58730    56.58730    56.58730
  Ewald    -616.94047  -616.94047  -616.94047     0.00058     0.00058     0.00058
  Hartree   290.53912   290.53912   290.53912     0.00014     0.00014     0.00014
  E(xc)    -137.61014  -137.61014  -137.61014     0.00005     0.00005     0.00005
  Local    -127.29391  -127.29391  -127.29391    -0.00083    -0.00083    -0.00083
  n-local    52.68981    52.04246    52.24109     2.08280    -1.55570     0.88908
  augment   212.25431   212.25431   212.25431     0.00018     0.00018     0.00018
  Kinetic   271.66888   271.06297   267.68520     2.90995    -1.58232     1.26088
  Fock        0.00000     0.00000     0.00000     0.00000     0.00000     0.00000
  Total      -0.00032    -0.00032    -0.00032    -0.00000    -0.00000     0.00000
  in kB      -0.00597    -0.00597    -0.00597    -0.00000    -0.00000     0.00000

 VOLUME and BASIS-vectors are now :
  energy-cutoff  :      520.00
  volume of cell :       85.68
      direct lattice vectors                 reciprocal lattice vectors
    -0.000000000  3.499056056  3.499056056    -0.142895682  0.142895682  0.142895682
     3.499056056  0.000000000  3.499056056     0.142895682 -0.142895682  0.142895682
     3.499056056  3.499056056 -0.000000000     0.142895682  0.142895682 -0.142895682

  length of vectors
     4.948412530  4.948412530  4.948412530     0.247502581  0.247502581  0.247502581

 FORCES acting on ions
    electron-ion (+dipol)            ewald-force                    non-local-force                 convergence-correction
   -.404E-03 -.404E-03 -.301E-03   -.172E-03 -.172E-03 -.172E-03   0.529E-22 -.159E-21 0.211E-21   0.526E-09 0.526E-09 0.665E-09
   0.202E-03 0.202E-03 0.215E-03   0.258E-04 0.258E-04 0.258E-04   -.867E-18 -.130E-17 -.130E-17   0.118E-08 0.118E-08 0.123E-08
   0.342E-02 0.342E-02 0.343E-02   0.507E-03 0.507E-03 0.507E-03   0.217E-18 0.217E-18 0.108E-17   0.167E-07 0.167E-07 0.167E-07
   -.387E-03 -.387E-03 -.410E-03   -.361E-03 -.361E-03 -.361E-03   0.000E+00 0.424E-20 0.854E-21   -.318E-08 -.318E-08 -.329E-08
   0.283E-02 0.283E-02 0.294E-02   0.104E-14 0.772E-15 0.487E-16   -.650E-18 -.108E-17 -.216E-18   0.152E-07 0.152E-07 0.153E-07

 POSITION                                       TOTAL-FORCE (eV/Angst)
      1.74953      1.74953      1.74953        -0.000000     -0.000000     -0.000000
      0.00000     -0.00000     -0.00000         0.000000      0.000000      0.000000
      3.49905      3.49905      3.49905        -0.000000     -0.000000     -0.000000
      5.24859      5.24859      5.24859         0.000000      0.000000     -0.000000
    total drift:                                0.002831      0.002831      0.002937

  FREE ENERGIE OF THE ION-ELECTRON SYSTEM (eV)
  free  energy   TOTEN  =       -11.02081137 eV

  energy  without entropy=      -11.02081137  energy(sigma->0) =      -11.02081137

 d Force = 0.0000000E+00[ 0.000E+00, 0.000E+00]  d Energy = 0.4077524E-06-0.408E-06
 d Force = 0.0000000E+00[ 0.000E+00, 0.000E+00]  d Ewald  = 0.1117810E+00-0.112E+00

 reached required accuracy - stopping structural energy minimisation