 vasp.5.4.4.18Apr17-6-g9f103f2a35 (build Jun 23 2019 17:35:09) complex

 executed on             LinuxIFC date 2020.01.15  15:39:21

 INCAR:
 POTCAR:    PAW_PBE Bi_d 06Sep2000
 POTCAR:    PAW_PBE Cs_sv 08Apr2002
 POTCAR:    PAW_PBE Rb_sv 06Sep2000

 POTCAR:    PAW_PBE Bi_d 06Sep2000
   VRHFIN =Bi:

   TITEL  = PAW_PBE Bi_d 06Sep2000
   POMASS =  208.980; ZVAL   =   15.000    mass and valenz
   ENMAX  =  242.839; ENMIN  =  182.129 eV

 POTCAR:    PAW_PBE Cs_sv 08Apr2002
   VRHFIN =Cs: 5s5p6s

   TITEL  = PAW_PBE Cs_sv 08Apr2002
   POMASS =  132.900; ZVAL   =    9.000    mass and valenz
   ENMAX  =  220.318; ENMIN  =  165.238 eV

 POTCAR:    PAW_PBE Rb_sv 06Sep2000
   VRHFIN =Rb: 4s4p5s

   TITEL  = PAW_PBE Rb_sv 06Sep2000
   POMASS =   85.468; ZVAL   =    9.000    mass and valenz
   ENMAX  =  220.112; ENMIN  =  165.084 eV

  PAW_PBE Bi_d 06Sep2000                :
  PAW_PBE Cs_sv 08Apr2002               :
  PAW_PBE Rb_sv 06Sep2000               :

 POSCAR: Cs Bi Rb
  positions in direct lattice
  velocities in cartesian coordinates
 exchange correlation table for  LEXCH =        8
   RHO(1)=    0.500       N(1)  =     2000
   RHO(2)=  100.500       N(2)  =     4000

 ion  position               nearest neighbor table
   1  0.250  0.250  0.250-   4 3.99   3 3.99   3 3.99   3 3.99   4 3.99   4 3.99   4 3.99   3 3.99

   2  0.750  0.750  0.750-   4 3.99   4 3.99   4 3.99   3 3.99   3 3.99   3 3.99   3 3.99   4 3.99

   3  0.000  0.000  0.000-   1 3.99   1 3.99   1 3.99   2 3.99   2 3.99   2 3.99   2 3.99   1 3.99
                             4 4.61   4 4.61   4 4.61   4 4.61   4 4.61   4 4.61
   4  0.500  0.500  0.500-   1 3.99   2 3.99   2 3.99   2 3.99   1 3.99   1 3.99   1 3.99   2 3.99
                             3 4.61   3 4.61   3 4.61   3 4.61   3 4.61   3 4.61

  LATTYP: Found a face centered cubic cell.
 ALAT       =     9.2207203643

  Lattice vectors:

 A1 = (   0.0000000000,   4.6103601822,   4.6103601822)
 A2 = (   4.6103601822,   0.0000000000,   4.6103601822)
 A3 = (   4.6103601822,   4.6103601822,   0.0000000000)

Analysis of symmetry for initial positions (statically):
 Subroutine PRICEL returns:
 Original cell was already a primitive cell.

 Routine SETGRP: Setting up the symmetry group for a
 face centered cubic supercell.

 Subroutine GETGRP returns: Found 48 space group operations
 (whereof 24 operations were pure point group operations)
 out of a pool of 48 trial point group operations.

The static configuration has the point symmetry T_d .
 The point group associated with its full space group is O_h .

Analysis of symmetry for dynamics (positions and initial velocities):
 Subroutine PRICEL returns:
 Original cell was already a primitive cell.

 Routine SETGRP: Setting up the symmetry group for a
 face centered cubic supercell.

 Subroutine GETGRP returns: Found 48 space group operations
 (whereof 24 operations were pure point group operations)
 out of a pool of 48 trial point group operations.

The dynamic configuration has the point symmetry T_d .
 The point group associated with its full space group is O_h .

 Subroutine INISYM returns: Found 48 space group operations
 (whereof 24 operations are pure point group operations),
 and found     1 'primitive' translations

 KPOINTS: KPOINTS

Automatic generation of k-mesh.
Space group operators:
 irot       det(A)        alpha          n_x          n_y          n_z        tau_x        tau_y        tau_z
    1     1.000000     0.000000     1.000000     0.000000     0.000000     0.000000     0.000000     0.000000
    2     1.000000   120.000000    -0.577350    -0.577350    -0.577350     0.000000     0.000000     0.000000
    3     1.000000   120.000000     0.577350     0.577350     0.577350     0.000000     0.000000     0.000000
    4    -1.000000    90.000000     0.000000     0.000000    -1.000000     0.000000     0.000000     0.000000
    5    -1.000000   180.000000     0.000000     0.707107     0.707107     0.000000     0.000000     0.000000
    6    -1.000000    90.000000     0.000000     1.000000     0.000000     0.000000     0.000000     0.000000
    7     1.000000   180.000000     0.000000     0.000000     1.000000     0.000000     0.000000     0.000000
    8     1.000000   120.000000    -0.577350     0.577350     0.577350     0.000000     0.000000     0.000000
    9     1.000000   120.000000    -0.577350     0.577350    -0.577350     0.000000     0.000000     0.000000
   10    -1.000000    90.000000     0.000000     0.000000     1.000000     0.000000     0.000000     0.000000
   11    -1.000000    90.000000    -1.000000     0.000000     0.000000     0.000000     0.000000     0.000000
   12    -1.000000   180.000000     0.707107     0.000000     0.707107     0.000000     0.000000     0.000000
   13     1.000000   120.000000     0.577350    -0.577350     0.577350     0.000000     0.000000     0.000000
   14     1.000000   120.000000    -0.577350    -0.577350     0.577350     0.000000     0.000000     0.000000
   15     1.000000   180.000000     1.000000     0.000000     0.000000     0.000000     0.000000     0.000000
   16    -1.000000    90.000000     0.000000    -1.000000     0.000000     0.000000     0.000000     0.000000
   17    -1.000000   180.000000     0.707107     0.707107     0.000000     0.000000     0.000000     0.000000
   18    -1.000000    90.000000     1.000000     0.000000     0.000000     0.000000     0.000000     0.000000
   19     1.000000   120.000000     0.577350    -0.577350    -0.577350     0.000000     0.000000     0.000000
   20     1.000000   180.000000     0.000000     1.000000     0.000000     0.000000     0.000000     0.000000
   21     1.000000   120.000000     0.577350     0.577350    -0.577350     0.000000     0.000000     0.000000
   22    -1.000000   180.000000     0.000000    -0.707107     0.707107     0.000000     0.000000     0.000000
   23    -1.000000   180.000000     0.707107    -0.707107     0.000000     0.000000     0.000000     0.000000
   24    -1.000000   180.000000     0.707107     0.000000    -0.707107     0.000000     0.000000     0.000000
   25    -1.000000     0.000000     1.000000     0.000000     0.000000     0.500001     0.500001     0.500001
   26    -1.000000   120.000000    -0.577350    -0.577350    -0.577350     0.500001     0.500001     0.500001
   27    -1.000000   120.000000     0.577350     0.577350     0.577350     0.500001     0.500001     0.500001
   28     1.000000    90.000000     0.000000     0.000000    -1.000000     0.499999     0.500001     0.500001
   29     1.000000   180.000000     0.000000     0.707107     0.707107     0.499999     0.500001     0.500001
   30     1.000000    90.000000     0.000000     1.000000     0.000000     0.499999     0.500001     0.500001
   31    -1.000000   180.000000     0.000000     0.000000     1.000000     0.500001     0.500001     0.499999
   32    -1.000000   120.000000    -0.577350     0.577350     0.577350     0.500001     0.500001     0.499999
   33    -1.000000   120.000000    -0.577350     0.577350    -0.577350     0.500001     0.500001     0.499999
   34     1.000000    90.000000     0.000000     0.000000     1.000000     0.500001     0.499999     0.500001
   35     1.000000    90.000000    -1.000000     0.000000     0.000000     0.500001     0.499999     0.500001
   36     1.000000   180.000000     0.707107     0.000000     0.707107     0.500001     0.499999     0.500001
   37    -1.000000   120.000000     0.577350    -0.577350     0.577350     0.499999     0.500001     0.500001
   38    -1.000000   120.000000    -0.577350    -0.577350     0.577350     0.499999     0.500001     0.500001
   39    -1.000000   180.000000     1.000000     0.000000     0.000000     0.499999     0.500001     0.500001
   40     1.000000    90.000000     0.000000    -1.000000     0.000000     0.500001     0.500001     0.499999
   41     1.000000   180.000000     0.707107     0.707107     0.000000     0.500001     0.500001     0.499999
   42     1.000000    90.000000     1.000000     0.000000     0.000000     0.500001     0.500001     0.499999
   43    -1.000000   120.000000     0.577350    -0.577350    -0.577350     0.500001     0.499999     0.500001
   44    -1.000000   180.000000     0.000000     1.000000     0.000000     0.500001     0.499999     0.500001
   45    -1.000000   120.000000     0.577350     0.577350    -0.577350     0.500001     0.499999     0.500001
   46     1.000000   180.000000     0.000000    -0.707107     0.707107     0.500001     0.500001     0.500001
   47     1.000000   180.000000     0.707107    -0.707107     0.000000     0.500001     0.500001     0.500001
   48     1.000000   180.000000     0.707107     0.000000    -0.707107     0.500001     0.500001     0.500001

 Subroutine IBZKPT returns following result:

 Found     29 irreducible k-points:

 Following reciprocal coordinates:
            Coordinates               Weight
  0.000000  0.000000  0.000000      1.000000
  0.125000  0.000000  0.000000      8.000000
  0.250000  0.000000  0.000000      8.000000
  0.375000  0.000000  0.000000      8.000000
  0.500000  0.000000  0.000000      4.000000
  0.125000  0.125000  0.000000      6.000000
  0.250000  0.125000  0.000000     24.000000
  0.375000  0.125000  0.000000     24.000000
  0.500000  0.125000  0.000000     24.000000
 -0.375000  0.125000  0.000000     24.000000
 -0.250000  0.125000  0.000000     24.000000
 -0.125000  0.125000  0.000000     12.000000
  0.250000  0.250000  0.000000      6.000000
  0.375000  0.250000  0.000000     24.000000
  0.500000  0.250000  0.000000     24.000000
 -0.375000  0.250000  0.000000     24.000000
 -0.250000  0.250000  0.000000     12.000000
  0.375000  0.375000  0.000000      6.000000
  0.500000  0.375000  0.000000     24.000000
 -0.375000  0.375000  0.000000     12.000000
  0.500000  0.500000  0.000000      3.000000
  0.375000  0.250000  0.125000     24.000000
  0.500000  0.250000  0.125000     48.000000
 -0.375000  0.250000  0.125000     24.000000
  0.500000  0.375000  0.125000     24.000000
 -0.375000  0.375000  0.125000     48.000000
 -0.250000  0.375000  0.125000     24.000000
 -0.375000  0.500000  0.125000     12.000000
 -0.250000  0.500000  0.250000      6.000000

 Following cartesian coordinates:
            Coordinates               Weight
  0.000000  0.000000  0.000000      1.000000
 -0.013556  0.013556  0.013556      8.000000
 -0.027113  0.027113  0.027113      8.000000
 -0.040669  0.040669  0.040669      8.000000
 -0.054226  0.054226  0.054226      4.000000
  0.000000  0.000000  0.027113      6.000000
 -0.013556  0.013556  0.040669     24.000000
 -0.027113  0.027113  0.054226     24.000000
 -0.040669  0.040669  0.067782     24.000000
  0.054226 -0.054226 -0.027113     24.000000
  0.040669 -0.040669 -0.013556     24.000000
  0.027113 -0.027113  0.000000     12.000000
  0.000000  0.000000  0.054226      6.000000
 -0.013556  0.013556  0.067782     24.000000
 -0.027113  0.027113  0.081339     24.000000
  0.067782 -0.067782 -0.013556     24.000000
  0.054226 -0.054226  0.000000     12.000000
  0.000000  0.000000  0.081339      6.000000
 -0.013556  0.013556  0.094895     24.000000
  0.081339 -0.081339  0.000000     12.000000
[...]

 Linear response parameters
   LEPSILON=     F    determine dielectric tensor
   LRPA    =     F    only Hartree local field effects (RPA)
   LNABLA  =     F    use nabla operator in PAW spheres
   LVEL    =     F    velocity operator in full k-point grid
   LINTERFAST=   F  fast interpolation
   KINTER  =     0    interpolate to denser k-point grid
   CSHIFT  =0.1000    complex shift for real part using Kramers Kronig
   OMEGAMAX=  -1.0    maximum frequency
   DEG_THRESHOLD= 0.2000000E-02 threshold for treating states as degnerate
   RTIME   =   -0.100 relaxation time in fs
  (WPLASMAI=    0.000 imaginary part of plasma frequency in eV, 0.658/RTIME)
   DFIELD  = 0.0000000 0.0000000 0.0000000 field for delta impulse in time

 Orbital magnetization related:
   ORBITALMAG=     F  switch on orbital magnetization
   LCHIMAG   =     F  perturbation theory with respect to B field
   DQ        =  0.001000  dq finite difference perturbation B field
   LLRAUG    =     F  two centre corrections for induced B field

 Static calculation
 charge density and potential will be updated during run
 non-spin polarized calculation
 Variant of blocked Davidson
 Davidson routine will perform the subspace rotation
 perform sub-space diagonalisation
    after iterative eigenvector-optimisation
 modified Broyden-mixing scheme, WC =      100.0
 initial mixing is a Kerker type mixing with AMIX =  0.4000 and BMIX =      1.0000
 Hartree-type preconditioning will be used
 using additional bands            4
 reciprocal scheme for non local part
 use partial core corrections
 calculate Harris-corrections to forces
   (improved forces if not selfconsistent)
 use gradient corrections
 use of overlap-Matrix (Vanderbilt PP)
 Gauss-broadening in eV      SIGMA  =   0.05

  energy-cutoff  :      520.00
  volume of cell :      195.99
      direct lattice vectors                 reciprocal lattice vectors
     0.000000000  4.610360182  4.610360182    -0.108451396  0.108451396  0.108451396
     4.610360182  0.000000000  4.610360182     0.108451396 -0.108451396  0.108451396
     4.610360182  4.610360182  0.000000000     0.108451396  0.108451396 -0.108451396

  length of vectors
     6.520033897  6.520033897  6.520033897     0.187843329  0.187843329  0.187843329

 k-points in units of 2pi/SCALE and weight: KPOINTS
   0.00000000  0.00000000  0.00000000       0.002
  -0.01355642  0.01355642  0.01355642       0.016
  -0.02711285  0.02711285  0.02711285       0.016
  -0.04066927  0.04066927  0.04066927       0.016
  -0.05422570  0.05422570  0.05422570       0.008
   0.00000000  0.00000000  0.02711285       0.012
  -0.01355642  0.01355642  0.04066927       0.047
  -0.02711285  0.02711285  0.05422570       0.047
  -0.04066927  0.04066927  0.06778212       0.047
   0.05422570 -0.05422570 -0.02711285       0.047
   0.04066927 -0.04066927 -0.01355642       0.047
   0.02711285 -0.02711285  0.00000000       0.023
   0.00000000  0.00000000  0.05422570       0.012
  -0.01355642  0.01355642  0.06778212       0.047
  -0.02711285  0.02711285  0.08133855       0.047
   0.06778212 -0.06778212 -0.01355642       0.047
   0.05422570 -0.05422570  0.00000000       0.023
   0.00000000  0.00000000  0.08133855       0.012
  -0.01355642  0.01355642  0.09489497       0.047
   0.08133855 -0.08133855  0.00000000       0.023
   0.00000000  0.00000000  0.10845140       0.006
  -0.00000000  0.02711285  0.05422570       0.047
  -0.01355642  0.04066927  0.06778212       0.094
   0.08133855 -0.05422570 -0.02711285       0.047
  -0.00000000  0.02711285  0.08133855       0.047
   0.09489497 -0.06778212 -0.01355642       0.094
   0.08133855 -0.05422570 -0.00000000       0.047
   0.10845140 -0.08133855  0.00000000       0.023
   0.10845140 -0.05422570  0.00000000       0.012

 k-points in reciprocal lattice and weights: KPOINTS
   0.00000000  0.00000000  0.00000000       0.002
   0.12500000  0.00000000  0.00000000       0.016
   0.25000000  0.00000000  0.00000000       0.016
   0.37500000  0.00000000  0.00000000       0.016
   0.50000000  0.00000000  0.00000000       0.008
   0.12500000  0.12500000  0.00000000       0.012
   0.25000000  0.12500000  0.00000000       0.047
   0.37500000  0.12500000  0.00000000       0.047
   0.50000000  0.12500000  0.00000000       0.047
  -0.37500000  0.12500000  0.00000000       0.047
  -0.25000000  0.12500000  0.00000000       0.047
  -0.12500000  0.12500000  0.00000000       0.023
   0.25000000  0.25000000  0.00000000       0.012
   0.37500000  0.25000000  0.00000000       0.047
   0.50000000  0.25000000  0.00000000       0.047
  -0.37500000  0.25000000  0.00000000       0.047
  -0.25000000  0.25000000  0.00000000       0.023
   0.37500000  0.37500000  0.00000000       0.012
   0.50000000  0.37500000  0.00000000       0.047
  -0.37500000  0.37500000  0.00000000       0.023
   0.50000000  0.50000000  0.00000000       0.006
   0.37500000  0.25000000  0.12500000       0.047
   0.50000000  0.25000000  0.12500000       0.094
  -0.37500000  0.25000000  0.12500000       0.047
   0.50000000  0.37500000  0.12500000       0.047
  -0.37500000  0.37500000  0.12500000       0.094
  -0.25000000  0.37500000  0.12500000       0.047
  -0.37500000  0.50000000  0.12500000       0.023
  -0.25000000  0.50000000  0.25000000       0.012

 position of ions in fractional coordinates (direct lattice)
   0.25000033  0.25000033  0.25000033
   0.74999989  0.74999989  0.74999989
   0.00000000  0.00000000  0.00000000
   0.49999956  0.49999956  0.49999956

 position of ions in cartesian coordinates  (Angst):
   2.30518312  2.30518312  2.30518312
   6.91553926  6.91553926  6.91553926
   0.00000000  0.00000000  0.00000000
   4.61035615  4.61035615  4.61035615

 k-point  1 :   0.0000 0.0000 0.0000  plane waves:    5209
 k-point  2 :   0.1250 0.0000 0.0000  plane waves:    5234
 k-point  3 :   0.2500 0.0000 0.0000  plane waves:    5270
 k-point  4 :   0.3750 0.0000 0.0000  plane waves:    5291
 k-point  5 :   0.5000 0.0000 0.0000  plane waves:    5252
 k-point  6 :   0.1250 0.1250 0.0000  plane waves:    5249
 k-point  7 :   0.2500 0.1250 0.0000  plane waves:    5266
 k-point  8 :   0.3750 0.1250 0.0000  plane waves:    5278
 k-point  9 :   0.5000 0.1250 0.0000  plane waves:    5280
 k-point 10 :  -0.3750 0.1250 0.0000  plane waves:    5285
 k-point 11 :  -0.2500 0.1250 0.0000  plane waves:    5277
 k-point 12 :  -0.1250 0.1250 0.0000  plane waves:    5250
 k-point 13 :   0.2500 0.2500 0.0000  plane waves:    5297
 k-point 14 :   0.3750 0.2500 0.0000  plane waves:    5277
 k-point 15 :   0.5000 0.2500 0.0000  plane waves:    5274
 k-point 16 :  -0.3750 0.2500 0.0000  plane waves:    5277
 k-point 17 :  -0.2500 0.2500 0.0000  plane waves:    5288
 k-point 18 :   0.3750 0.3750 0.0000  plane waves:    5273
 k-point 19 :   0.5000 0.3750 0.0000  plane waves:    5283
 k-point 20 :  -0.3750 0.3750 0.0000  plane waves:    5274
 k-point 21 :   0.5000 0.5000 0.0000  plane waves:    5290
 k-point 22 :   0.3750 0.2500 0.1250  plane waves:    5269
 k-point 23 :   0.5000 0.2500 0.1250  plane waves:    5276
 k-point 24 :  -0.3750 0.2500 0.1250  plane waves:    5286
 k-point 25 :   0.5000 0.3750 0.1250  plane waves:    5279
 k-point 26 :  -0.3750 0.3750 0.1250  plane waves:    5278
 k-point 27 :  -0.2500 0.3750 0.1250  plane waves:    5272
 k-point 28 :  -0.3750 0.5000 0.1250  plane waves:    5292
 k-point 29 :  -0.2500 0.5000 0.2500  plane waves:    5268

 maximum and minimum number of plane-waves per node :       772      730

 maximum number of plane-waves:      5297
 maximum index in each direction:
   IXMAX=   12   IYMAX=   12   IZMAX=   12
   IXMIN=  -12   IYMIN=  -12   IZMIN=  -12

 parallel 3D FFT for wavefunctions:
    minimum data exchange during FFTs selected (reduces bandwidth)
 parallel 3D FFT for charge:
    minimum data exchange during FFTs selected (reduces bandwidth)

 Broyden mixing: mesh for mixing (old mesh)
   NGX = 25   NGY = 25   NGZ = 25
  (NGX  = 96   NGY  = 96   NGZ  = 96)
  gives a total of  15625 points

 initial charge density was supplied:
 charge density of overlapping atoms calculated
 number of electron      42.0000000 magnetization
 keeping initial charge density in first step

 Maximum index for augmentation-charges         3944 (set IRDMAX)

 First call to EWALD:  gamma=   0.305
 Maximum number of real-space cells 3x 3x 3
 Maximum number of reciprocal cells 3x 3x 3

--------------------------------------- Iteration      1(   1)  ---------------------------------------

 eigenvalue-minimisations  :  1466
 total energy-change (2. order) : 0.3725721E+03  (-0.1904902E+04)
 number of electron      42.0000000 magnetization
 augmentation part       42.0000000 magnetization

 Free energy of the ion-electron system (eV)
  alpha Z        PSCENC =       141.71061232
  Ewald energy   TEWEN  =     -2584.07013028
  -Hartree energ DENC   =     -1049.24223106
  -exchange      EXHF   =         0.00000000
  -V(xc)+E(xc)   XCENC  =       116.89400135
  PAW double counting   =      3110.29076924    -3064.67432099
  entropy T*S    EENTRO =        -0.00301226
  eigenvalues    EBANDS =      -138.22160361
  atomic energy  EATOM  =      3839.88806440
  Solvation  Ediel_sol  =         0.00000000
  free energy    TOTEN  =       372.57214911 eV

  energy without entropy =      372.57516138  energy(sigma->0) =      372.57365524

[...]

 eigenvalue-minimisations  :  1799
 total energy-change (2. order) :-0.3473669E+03  (-0.3430928E+03)
 number of electron      42.0000000 magnetization
 augmentation part       42.0000000 magnetization

[...]

 Broyden mixing:
  rms(total) = 0.39700E+00    rms(broyden)= 0.39700E+00
  rms(prec ) = 0.10811E+01
  weight for this iteration     100.00

[...]

 eigenvalues of (default mixing * dielectric matrix)
  average eigenvalue GAMMA=   1.6863
  1.6863

[...]

 eigenvalue-minimisations  :  1354
 total energy-change (2. order) : 0.1166927E-07  (-0.7490246E-08)
 number of electron      41.9999995 magnetization
 augmentation part        3.4705272 magnetization

 Broyden mixing:
  rms(total) = 0.43901E-05    rms(broyden)= 0.43899E-05
  rms(prec ) = 0.77907E-05
  weight for this iteration     100.00

 eigenvalues of (default mixing * dielectric matrix)
  average eigenvalue GAMMA=   1.6808
  3.2605  2.9480  2.5305  2.1282  1.7902  1.2335  1.0530  1.0351  0.9620  0.9620
  0.5864

[...]

--------------------------------------- Iteration      1(  17)  ---------------------------------------

 eigenvalue-minimisations  :  1337
 total energy-change (2. order) :-0.2319211E-08  (-0.3336967E-09)
 number of electron      41.9999995 magnetization
 augmentation part        3.4705272 magnetization

 Free energy of the ion-electron system (eV)
  alpha Z        PSCENC =       141.71061232
  Ewald energy   TEWEN  =     -2584.07013028
  -Hartree energ DENC   =     -1052.35438231
  -exchange      EXHF   =         0.00000000
  -V(xc)+E(xc)   XCENC  =       116.76927247
  PAW double counting   =      3233.66745842    -3190.17047926
  entropy T*S    EENTRO =        -0.00000928
  eigenvalues    EBANDS =      -513.38363179
  atomic energy  EATOM  =      3839.88806440
  Solvation  Ediel_sol  =         0.00000000
  free energy    TOTEN  =        -7.94322530 eV

  energy without entropy =       -7.94321602  energy(sigma->0) =       -7.94322066

 average (electrostatic) potential at core
  the test charge radii are     1.0856  1.1312  1.1097
  (the norm of the test charge is              1.0000)
       1-107.2998       2 -51.1297       3 -38.2497       4 -38.2497

 E-fermi :   1.8982     XC(G=0):  -7.5227     alpha+bet : -7.1499

 k-point     1 :       0.0000    0.0000    0.0000
  band No.  band energies     occupation
      1     -25.9463      2.00000
      2     -25.9311      2.00000
      3     -21.3843      2.00000
      4     -19.0872      2.00000
      5     -19.0872      2.00000
      6     -19.0872      2.00000
      7     -19.0823      2.00000
      8     -19.0823      2.00000
      9     -10.1211      2.00000
     10     -10.1211      2.00000
     11     -10.1211      2.00000
     12     -10.0421      2.00000
     13     -10.0421      2.00000
     14     -10.0421      2.00000
     15      -8.2021      2.00000
     16      -8.2021      2.00000
     17      -8.2021      2.00000
     18      -7.0430      2.00000
     19       1.7208      2.00000
     20       1.7208      2.00000
     21       1.7208      2.00000
     22       1.9793      0.02174
     23       3.6668      0.00000
     24       3.6668      0.00000
     25       4.5896      0.00000

[...]

 k-point    29 :      -0.2500    0.5000    0.2500
  band No.  band energies     occupation
      1     -25.9383      2.00000
      2     -25.9383      2.00000
      3     -21.3861      2.00000
      4     -19.0871      2.00000
      5     -19.0869      2.00000
      6     -19.0869      2.00000
      7     -19.0823      2.00000
      8     -19.0823      2.00000
      9     -10.2217      2.00000
     10     -10.1429      2.00000
     11     -10.0998      2.00000
     12     -10.0998      2.00000
     13     -10.0012      2.00000
     14      -9.9988      2.00000
     15      -8.2042      2.00000
     16      -8.2042      2.00000
     17      -8.1637      2.00000
     18      -6.9379      2.00000
     19       1.2604      2.00000
     20       1.2605      2.00000
     21       1.5430      2.00000
     22       3.7479      0.00000
     23       4.1811      0.00000
     24       4.1811      0.00000
     25       4.6225      0.00000

 soft charge-density along one line, spin component           1
         0         1         2         3         4         5         6         7         8         9
 total charge-density along one line

------------------------ aborting loop because EDIFF is reached ----------------------------------------

  FORCE on cell =-STRESS in cart. coord.  units (eV):
  Direction    XX          YY          ZZ          XY          YZ          ZX
  Alpha Z   141.71061   141.71061   141.71061
  Ewald    -861.35744  -861.35744  -861.35744     0.00037     0.00037     0.00037
  Hartree   350.78480   350.78480   350.78480    -0.00001    -0.00001    -0.00001
  E(xc)    -170.72334  -170.72334  -170.72334     0.00000     0.00000     0.00000
  Local    -118.52559  -118.52559  -118.52559    -0.00042    -0.00042    -0.00042
  n-local    27.56646    27.77065    25.81267     1.18031    -0.98527     0.65669
  augment   118.59222   118.59222   118.59222    -0.00001    -0.00001    -0.00001
  Kinetic   513.33739   512.98845   511.07723     1.86258    -1.57285     1.07734
  Fock        0.00000     0.00000     0.00000     0.00000     0.00000     0.00000
  Total      -0.00111    -0.00111    -0.00111     0.00000     0.00000     0.00000
  in kB      -0.00911    -0.00911    -0.00911     0.00000     0.00000     0.00000

 VOLUME and BASIS-vectors are now :
  energy-cutoff  :      520.00
  volume of cell :      195.99
      direct lattice vectors                 reciprocal lattice vectors
     0.000000000  4.610360182  4.610360182    -0.108451396  0.108451396  0.108451396
     4.610360182  0.000000000  4.610360182     0.108451396 -0.108451396  0.108451396
     4.610360182  4.610360182  0.000000000     0.108451396  0.108451396 -0.108451396

  length of vectors
     6.520033897  6.520033897  6.520033897     0.187843329  0.187843329  0.187843329

 FORCES acting on ions
    electron-ion (+dipol)            ewald-force                    non-local-force                 convergence-correction
   -.147E-02 -.147E-02 -.139E-02   -.587E-03 -.587E-03 -.587E-03   0.169E-20 -.169E-20 0.000E+00   0.144E-05 0.144E-05 0.149E-05
   0.142E-02 0.142E-02 0.147E-02   0.117E-03 0.117E-03 0.117E-03   0.106E-19 -.508E-20 0.212E-20   -.453E-06 -.453E-06 -.475E-06
   0.965E-03 0.965E-03 0.102E-02   -.447E-09 -.447E-09 -.447E-09   0.104E-16 0.191E-16 0.759E-17   0.456E-06 0.456E-06 0.456E-06
   0.350E-02 0.350E-02 0.356E-02   0.470E-03 0.470E-03 0.470E-03   -.867E-17 -.104E-16 -.672E-17   -.712E-06 -.712E-06 -.712E-06
   0.442E-02 0.442E-02 0.466E-02   0.654E-15 0.855E-15 -.209E-15   0.175E-17 0.867E-17 0.869E-18   0.734E-06 0.734E-06 0.757E-06

 POSITION                                       TOTAL-FORCE (eV/Angst)
      2.30518      2.30518      2.30518        -0.000000     -0.000000     -0.000000
      6.91554      6.91554      6.91554        -0.000000     -0.000000     -0.000000
      0.00000      0.00000      0.00000         0.000000      0.000000      0.000000
      4.61036      4.61036      4.61036        -0.000000     -0.000000     -0.000000
    total drift:                                0.004422      0.004422      0.004663

  FREE ENERGIE OF THE ION-ELECTRON SYSTEM (eV)
  free  energy   TOTEN  =        -7.94322530 eV

  energy  without entropy=       -7.94321602  energy(sigma->0) =       -7.94322066