 vasp.5.4.4.18Apr17-6-g9f103f2a35 (build Jun 23 2019 17:35:09) complex

 executed on             LinuxIFC date 2020.01.15  15:43:23

 INCAR:
 POTCAR:    PAW_PBE K_sv 06Sep2000
 POTCAR:    PAW_PBE Na_pv 19Sep2006
 POTCAR:    PAW_PBE Sb 06Sep2000

 POTCAR:    PAW_PBE K_sv 06Sep2000
   VRHFIN =K:  3s3p4s

   TITEL  = PAW_PBE K_sv 06Sep2000
   POMASS =   39.098; ZVAL   =    9.000    mass and valenz
   ENMAX  =  259.264; ENMIN  =  194.448 eV

 POTCAR:    PAW_PBE Na_pv 19Sep2006
   VRHFIN =Na: p6s1

   TITEL  = PAW_PBE Na_pv 19Sep2006
   POMASS =   22.990; ZVAL   =    7.000    mass and valenz
   ENMAX  =  259.561; ENMIN  =  194.671 eV

 POTCAR:    PAW_PBE Sb 06Sep2000
   VRHFIN =Sb: s2p3

   TITEL  = PAW_PBE Sb 06Sep2000
   POMASS =  121.750; ZVAL   =    5.000    mass and valenz
   ENMAX  =  172.069; ENMIN  =  129.052 eV

  PAW_PBE K_sv 06Sep2000                :
  PAW_PBE Na_pv 19Sep2006               :
  PAW_PBE Sb 06Sep2000                  :

 POSCAR: Na K Sb
  positions in direct lattice
  velocities in cartesian coordinates
 exchange correlation table for  LEXCH =        8
   RHO(1)=    0.500       N(1)  =     2000
   RHO(2)=  100.500       N(2)  =     4000

 ion  position               nearest neighbor table
   1  0.500  0.000  0.500-
   2  0.750  0.500  0.250-
   3  0.250  0.500  0.750-
   4  0.000  0.000  0.000-

  LATTYP: Found a face centered cubic cell.
 ALAT       =     7.8034523841

  Lattice vectors:

 A1 = (  -3.9017261921,   0.0000000000,  -3.9017261921)
 A2 = (   0.0000000000,  -3.9017261921,  -3.9017261921)
 A3 = (  -3.9017261921,  -3.9017261921,   0.0000000000)

Analysis of symmetry for initial positions (statically):
 Subroutine PRICEL returns:
 Original cell was already a primitive cell.

 Routine SETGRP: Setting up the symmetry group for a
 face centered cubic supercell.

 Subroutine GETGRP returns: Found 48 space group operations
 (whereof 48 operations were pure point group operations)
 out of a pool of 48 trial point group operations.

The static configuration has the point symmetry O_h .

Analysis of symmetry for dynamics (positions and initial velocities):
 Subroutine PRICEL returns:
 Original cell was already a primitive cell.

 Routine SETGRP: Setting up the symmetry group for a
 face centered cubic supercell.

 Subroutine GETGRP returns: Found 48 space group operations
 (whereof 48 operations were pure point group operations)
 out of a pool of 48 trial point group operations.

The dynamic configuration has the point symmetry O_h .

 Subroutine INISYM returns: Found 48 space group operations
 (whereof 48 operations are pure point group operations),
 and found     1 'primitive' translations

 KPOINTS: KPOINTS

Automatic generation of k-mesh.
Space group operators:
 irot       det(A)        alpha          n_x          n_y          n_z        tau_x        tau_y        tau_z
    1     1.000000     0.000000     1.000000     0.000000     0.000000     0.000000     0.000000     0.000000
    2    -1.000000     0.000000     1.000000     0.000000     0.000000     0.000000     0.000000     0.000000
    3     1.000000   120.000000     0.577350     0.577350     0.577350     0.000000     0.000000     0.000000
    4    -1.000000   120.000000     0.577350     0.577350     0.577350     0.000000     0.000000     0.000000
    5     1.000000   120.000000    -0.577350    -0.577350    -0.577350     0.000000     0.000000     0.000000
    6    -1.000000   120.000000    -0.577350    -0.577350    -0.577350     0.000000     0.000000     0.000000
    7     1.000000    90.000000     0.000000     0.000000     1.000000     0.000000     0.000000     0.000000
    8    -1.000000    90.000000     0.000000     0.000000     1.000000     0.000000     0.000000     0.000000
    9     1.000000   180.000000     0.707107     0.000000     0.707107     0.000000     0.000000     0.000000
   10    -1.000000   180.000000     0.707107     0.000000     0.707107     0.000000     0.000000     0.000000
   11     1.000000    90.000000    -1.000000     0.000000     0.000000     0.000000     0.000000     0.000000
   12    -1.000000    90.000000    -1.000000     0.000000     0.000000     0.000000     0.000000     0.000000
   13     1.000000   180.000000     0.000000     0.000000     1.000000     0.000000     0.000000     0.000000
   14    -1.000000   180.000000     0.000000     0.000000     1.000000     0.000000     0.000000     0.000000
   15     1.000000   120.000000    -0.577350     0.577350    -0.577350     0.000000     0.000000     0.000000
   16    -1.000000   120.000000    -0.577350     0.577350    -0.577350     0.000000     0.000000     0.000000
   17     1.000000   120.000000    -0.577350     0.577350     0.577350     0.000000     0.000000     0.000000
   18    -1.000000   120.000000    -0.577350     0.577350     0.577350     0.000000     0.000000     0.000000
   19     1.000000    90.000000     0.000000     0.000000    -1.000000     0.000000     0.000000     0.000000
   20    -1.000000    90.000000     0.000000     0.000000    -1.000000     0.000000     0.000000     0.000000
   21     1.000000    90.000000     0.000000     1.000000     0.000000     0.000000     0.000000     0.000000
   22    -1.000000    90.000000     0.000000     1.000000     0.000000     0.000000     0.000000     0.000000
   23     1.000000   180.000000     0.000000     0.707107     0.707107     0.000000     0.000000     0.000000
   24    -1.000000   180.000000     0.000000     0.707107     0.707107     0.000000     0.000000     0.000000
   25     1.000000   120.000000     0.577350    -0.577350    -0.577350     0.000000     0.000000     0.000000
   26    -1.000000   120.000000     0.577350    -0.577350    -0.577350     0.000000     0.000000     0.000000
   27     1.000000   120.000000     0.577350     0.577350    -0.577350     0.000000     0.000000     0.000000
   28    -1.000000   120.000000     0.577350     0.577350    -0.577350     0.000000     0.000000     0.000000
   29     1.000000   180.000000     0.000000     1.000000     0.000000     0.000000     0.000000     0.000000
   30    -1.000000   180.000000     0.000000     1.000000     0.000000     0.000000     0.000000     0.000000
   31     1.000000    90.000000     1.000000     0.000000     0.000000     0.000000     0.000000     0.000000
   32    -1.000000    90.000000     1.000000     0.000000     0.000000     0.000000     0.000000     0.000000
   33     1.000000   180.000000     0.707107     0.707107     0.000000     0.000000     0.000000     0.000000
   34    -1.000000   180.000000     0.707107     0.707107     0.000000     0.000000     0.000000     0.000000
   35     1.000000    90.000000     0.000000    -1.000000     0.000000     0.000000     0.000000     0.000000
   36    -1.000000    90.000000     0.000000    -1.000000     0.000000     0.000000     0.000000     0.000000
   37     1.000000   120.000000     0.577350    -0.577350     0.577350     0.000000     0.000000     0.000000
   38    -1.000000   120.000000     0.577350    -0.577350     0.577350     0.000000     0.000000     0.000000
   39     1.000000   180.000000     1.000000     0.000000     0.000000     0.000000     0.000000     0.000000
   40    -1.000000   180.000000     1.000000     0.000000     0.000000     0.000000     0.000000     0.000000
   41     1.000000   120.000000    -0.577350    -0.577350     0.577350     0.000000     0.000000     0.000000
   42    -1.000000   120.000000    -0.577350    -0.577350     0.577350     0.000000     0.000000     0.000000
   43     1.000000   180.000000     0.707107     0.000000    -0.707107     0.000000     0.000000     0.000000
   44    -1.000000   180.000000     0.707107     0.000000    -0.707107     0.000000     0.000000     0.000000
   45     1.000000   180.000000     0.707107    -0.707107     0.000000     0.000000     0.000000     0.000000
   46    -1.000000   180.000000     0.707107    -0.707107     0.000000     0.000000     0.000000     0.000000
   47     1.000000   180.000000     0.000000    -0.707107     0.707107     0.000000     0.000000     0.000000
   48    -1.000000   180.000000     0.000000    -0.707107     0.707107     0.000000     0.000000     0.000000

 Subroutine IBZKPT returns following result:

 Found     29 irreducible k-points:

 Following reciprocal coordinates:
            Coordinates               Weight
  0.000000  0.000000  0.000000      1.000000
  0.125000  0.000000  0.000000      8.000000
  0.250000  0.000000  0.000000      8.000000
  0.375000  0.000000  0.000000      8.000000
  0.500000  0.000000  0.000000      4.000000
  0.000000  0.125000  0.000000      6.000000
  0.125000  0.125000  0.000000     24.000000
  0.250000  0.125000  0.000000     24.000000
  0.375000  0.125000  0.000000     24.000000
  0.500000  0.125000  0.000000     24.000000
 -0.375000  0.125000  0.000000     24.000000
 -0.250000  0.125000  0.000000     12.000000
  0.000000  0.250000  0.000000      6.000000
  0.125000  0.250000  0.000000     24.000000
  0.250000  0.250000  0.000000     24.000000
  0.375000  0.250000  0.000000     24.000000
  0.500000  0.250000  0.000000     12.000000
  0.000000  0.375000  0.000000      6.000000
  0.125000  0.375000  0.000000     24.000000
  0.250000  0.375000  0.000000     12.000000
  0.000000  0.500000  0.000000      3.000000
  0.125000  0.125000  0.125000     24.000000
  0.250000  0.125000  0.125000     48.000000
  0.375000  0.125000  0.125000     24.000000
  0.125000  0.250000  0.125000     24.000000
  0.250000  0.250000  0.125000     48.000000
  0.375000  0.250000  0.125000     24.000000
  0.125000  0.375000  0.125000     12.000000
  0.250000  0.250000  0.250000      6.000000

 Following cartesian coordinates:
            Coordinates               Weight
  0.000000  0.000000  0.000000      1.000000
  0.016019 -0.016019 -0.016019      8.000000
  0.032037 -0.032037 -0.032037      8.000000
  0.048056 -0.048056 -0.048056      8.000000
  0.064074 -0.064074 -0.064074      4.000000
  0.000000  0.000000 -0.032037      6.000000
  0.016019 -0.016019 -0.048056     24.000000
  0.032037 -0.032037 -0.064074     24.000000
  0.048056 -0.048056 -0.080093     24.000000
  0.064074 -0.064074 -0.096111     24.000000
 -0.048056  0.048056  0.016019     24.000000
 -0.032037  0.032037  0.000000     12.000000
  0.000000  0.000000 -0.064074      6.000000
  0.016019 -0.016019 -0.080093     24.000000
  0.032037 -0.032037 -0.096111     24.000000
  0.048056 -0.048056 -0.112130     24.000000
  0.064074 -0.064074 -0.128148     12.000000
  0.000000  0.000000 -0.096111      6.000000
  0.016019 -0.016019 -0.112130     24.000000
  0.032037 -0.032037 -0.128148     12.000000
  0.000000  0.000000 -0.128148      3.000000
  0.032037  0.000000 -0.064074     24.000000
  0.048056 -0.016019 -0.080093     48.000000
  0.064074 -0.032037 -0.096111     24.000000
  0.032037  0.000000 -0.096111     24.000000
  0.048056 -0.016019 -0.112130     48.000000
  0.064074 -0.032037 -0.128148     24.000000
  0.032037  0.000000 -0.128148     12.000000
  0.064074  0.000000 -0.128148      6.000000

 SYSTEM =  unknown system
 POSCAR =  Na K Sb

 Startparameter for this run:
   NWRITE =      2    write-flag & timer
   PREC   = acc       normal or accurate (medium, high low for compatibility)
[...]
   LDIPOL =      F    correct potential (dipole corrections)
   IDIPOL =      0    1-x, 2-y, 3-z, 4-all directions
   EPSILON=  1.0000000 bulk dielectric constant

 Exchange correlation treatment:
   GGA     =    PE    GGA type
   VOSKOWN=      0    Vosko Wilk Nusair interpolation
   LHFCALC =     F    Hartree Fock is set to
   LHFONE  =     F    Hartree Fock one center treatment
   AEXX    =    0.0000 exact exchange contribution

 Linear response parameters
   LEPSILON=     F    determine dielectric tensor
   LRPA    =     F    only Hartree local field effects (RPA)
   LNABLA  =     F    use nabla operator in PAW spheres
   LVEL    =     F    velocity operator in full k-point grid
   LINTERFAST=   F  fast interpolation
   KINTER  =     0    interpolate to denser k-point grid
   CSHIFT  =0.1000    complex shift for real part using Kramers Kronig
   OMEGAMAX=  -1.0    maximum frequency
   DEG_THRESHOLD= 0.2000000E-02 threshold for treating states as degnerate
   RTIME   =   -0.100 relaxation time in fs
  (WPLASMAI=    0.000 imaginary part of plasma frequency in eV, 0.658/RTIME)
   DFIELD  = 0.0000000 0.0000000 0.0000000 field for delta impulse in time

 Orbital magnetization related:
   ORBITALMAG=     F  switch on orbital magnetization
   LCHIMAG   =     F  perturbation theory with respect to B field
   DQ        =  0.001000  dq finite difference perturbation B field
   LLRAUG    =     F  two centre corrections for induced B field

 Static calculation
 charge density and potential will be updated during run
 non-spin polarized calculation
 Variant of blocked Davidson
 Davidson routine will perform the subspace rotation
 perform sub-space diagonalisation
    after iterative eigenvector-optimisation
 modified Broyden-mixing scheme, WC =      100.0
 initial mixing is a Kerker type mixing with AMIX =  0.4000 and BMIX =      1.0000
 Hartree-type preconditioning will be used
 using additional bands            4
 reciprocal scheme for non local part
 use partial core corrections
 calculate Harris-corrections to forces
   (improved forces if not selfconsistent)
 use gradient corrections
 use of overlap-Matrix (Vanderbilt PP)
 Gauss-broadening in eV      SIGMA  =   0.05

  energy-cutoff  :      520.00
  volume of cell :      118.80
      direct lattice vectors                 reciprocal lattice vectors
     3.901726192 -3.901726192  0.000000000     0.128148408 -0.128148408 -0.128148408
    -3.901726192  0.000000000 -3.901726192     0.000000000  0.000000000 -0.256296816
     3.901726192  3.901726192  0.000000000     0.128148408  0.128148408 -0.128148408

  length of vectors
     5.517874097  5.517874097  5.517874097     0.221959554  0.256296816  0.221959554

 k-points in units of 2pi/SCALE and weight: KPOINTS
   0.00000000  0.00000000  0.00000000       0.002
   0.01601855 -0.01601855 -0.01601855       0.016
   0.03203710 -0.03203710 -0.03203710       0.016
   0.04805565 -0.04805565 -0.04805565       0.016
   0.06407420 -0.06407420 -0.06407420       0.008
   0.00000000  0.00000000 -0.03203710       0.012
   0.01601855 -0.01601855 -0.04805565       0.047
   0.03203710 -0.03203710 -0.06407420       0.047
   0.04805565 -0.04805565 -0.08009276       0.047
   0.06407420 -0.06407420 -0.09611131       0.047
  -0.04805565  0.04805565  0.01601855       0.047
  -0.03203710  0.03203710  0.00000000       0.023
   0.00000000  0.00000000 -0.06407420       0.012
   0.01601855 -0.01601855 -0.08009276       0.047
   0.03203710 -0.03203710 -0.09611131       0.047
   0.04805565 -0.04805565 -0.11212986       0.047
   0.06407420 -0.06407420 -0.12814841       0.023
   0.00000000  0.00000000 -0.09611131       0.012
   0.01601855 -0.01601855 -0.11212986       0.047
   0.03203710 -0.03203710 -0.12814841       0.023
   0.00000000  0.00000000 -0.12814841       0.006
   0.03203710  0.00000000 -0.06407420       0.047
   0.04805565 -0.01601855 -0.08009276       0.094
   0.06407420 -0.03203710 -0.09611131       0.047
   0.03203710  0.00000000 -0.09611131       0.047
   0.04805565 -0.01601855 -0.11212986       0.094
   0.06407420 -0.03203710 -0.12814841       0.047
   0.03203710  0.00000000 -0.12814841       0.023
   0.06407420  0.00000000 -0.12814841       0.012

 k-points in reciprocal lattice and weights: KPOINTS
   0.00000000  0.00000000  0.00000000       0.002
   0.12500000  0.00000000  0.00000000       0.016
   0.25000000  0.00000000  0.00000000       0.016
   0.37500000  0.00000000  0.00000000       0.016
   0.50000000  0.00000000  0.00000000       0.008
   0.00000000  0.12500000  0.00000000       0.012
   0.12500000  0.12500000  0.00000000       0.047
   0.25000000  0.12500000  0.00000000       0.047
   0.37500000  0.12500000  0.00000000       0.047
   0.50000000  0.12500000  0.00000000       0.047
  -0.37500000  0.12500000  0.00000000       0.047
  -0.25000000  0.12500000  0.00000000       0.023
   0.00000000  0.25000000  0.00000000       0.012
   0.12500000  0.25000000  0.00000000       0.047
   0.25000000  0.25000000  0.00000000       0.047
   0.37500000  0.25000000  0.00000000       0.047
   0.50000000  0.25000000  0.00000000       0.023
   0.00000000  0.37500000  0.00000000       0.012
   0.12500000  0.37500000  0.00000000       0.047
   0.25000000  0.37500000  0.00000000       0.023
   0.00000000  0.50000000  0.00000000       0.006
   0.12500000  0.12500000  0.12500000       0.047
   0.25000000  0.12500000  0.12500000       0.094
   0.37500000  0.12500000  0.12500000       0.047
   0.12500000  0.25000000  0.12500000       0.047
   0.25000000  0.25000000  0.12500000       0.094
   0.37500000  0.25000000  0.12500000       0.047
   0.12500000  0.37500000  0.12500000       0.023
   0.25000000  0.25000000  0.25000000       0.012

 position of ions in fractional coordinates (direct lattice)
   0.49999987  0.00000000  0.49999987
   0.75000175  0.50000117  0.25000058
   0.25000058  0.50000117  0.75000175
   0.00000000  0.00000000  0.00000000

 position of ions in cartesian coordinates  (Angst):
   3.90172518  0.00000000  0.00000000
   1.95086766 -1.95086766 -1.95086766
   1.95086766  1.95086766 -1.95086766
   0.00000000  0.00000000  0.00000000

 k-point  1 :   0.0000 0.0000 0.0000  plane waves:    3143
 k-point  2 :   0.1250 0.0000 0.0000  plane waves:    3197
 k-point  3 :   0.2500 0.0000 0.0000  plane waves:    3203
 k-point  4 :   0.3750 0.0000 0.0000  plane waves:    3200
 k-point  5 :   0.5000 0.0000 0.0000  plane waves:    3178
 k-point  6 :   0.0000 0.1250 0.0000  plane waves:    3203
 k-point  7 :   0.1250 0.1250 0.0000  plane waves:    3211
 k-point  8 :   0.2500 0.1250 0.0000  plane waves:    3223
 k-point  9 :   0.3750 0.1250 0.0000  plane waves:    3195
 k-point 10 :   0.5000 0.1250 0.0000  plane waves:    3188
 k-point 11 :  -0.3750 0.1250 0.0000  plane waves:    3199
 k-point 12 :  -0.2500 0.1250 0.0000  plane waves:    3221
 k-point 13 :   0.0000 0.2500 0.0000  plane waves:    3207
 k-point 14 :   0.1250 0.2500 0.0000  plane waves:    3201
 k-point 15 :   0.2500 0.2500 0.0000  plane waves:    3191
 k-point 16 :   0.3750 0.2500 0.0000  plane waves:    3189
 k-point 17 :   0.5000 0.2500 0.0000  plane waves:    3190
 k-point 18 :   0.0000 0.3750 0.0000  plane waves:    3194
 k-point 19 :   0.1250 0.3750 0.0000  plane waves:    3203
 k-point 20 :   0.2500 0.3750 0.0000  plane waves:    3200
 k-point 21 :   0.0000 0.5000 0.0000  plane waves:    3250
 k-point 22 :   0.1250 0.1250 0.1250  plane waves:    3203
 k-point 23 :   0.2500 0.1250 0.1250  plane waves:    3188
 k-point 24 :   0.3750 0.1250 0.1250  plane waves:    3186
 k-point 25 :   0.1250 0.2500 0.1250  plane waves:    3187
 k-point 26 :   0.2500 0.2500 0.1250  plane waves:    3196
 k-point 27 :   0.3750 0.2500 0.1250  plane waves:    3205
 k-point 28 :   0.1250 0.3750 0.1250  plane waves:    3192
 k-point 29 :   0.2500 0.2500 0.2500  plane waves:    3188

 maximum and minimum number of plane-waves per node :       478      433

 maximum number of plane-waves:      3250
 maximum index in each direction:
   IXMAX=   10   IYMAX=   10   IZMAX=   10
   IXMIN=  -10   IYMIN=  -10   IZMIN=  -10

 parallel 3D FFT for wavefunctions:
    minimum data exchange during FFTs selected (reduces bandwidth)
 parallel 3D FFT for charge:
    minimum data exchange during FFTs selected (reduces bandwidth)

 Broyden mixing: mesh for mixing (old mesh)
   NGX = 21   NGY = 21   NGZ = 21
  (NGX  = 84   NGY  = 84   NGZ  = 84)
  gives a total of   9261 points

 initial charge density was supplied:
 charge density of overlapping atoms calculated
 number of electron      28.0000000 magnetization
 keeping initial charge density in first step

 Maximum index for augmentation-charges         4773 (set IRDMAX)

 First call to EWALD:  gamma=   0.361
 Maximum number of real-space cells 3x 3x 3
 Maximum number of reciprocal cells 3x 3x 3

--------------------------------------- Iteration      1(   1)  ---------------------------------------

 eigenvalue-minimisations  :  1044
 total energy-change (2. order) : 0.2294760E+03  (-0.1352247E+04)
 number of electron      28.0000000 magnetization
 augmentation part       28.0000000 magnetization

 Free energy of the ion-electron system (eV)
  alpha Z        PSCENC =        50.22067890
  Ewald energy   TEWEN  =     -1342.03899423
  -Hartree energ DENC   =      -703.24206757
  -exchange      EXHF   =         0.00000000
  -V(xc)+E(xc)   XCENC  =        38.69938194
  PAW double counting   =      1762.39966399    -1880.54449946
  entropy T*S    EENTRO =        -0.00101394
  eigenvalues    EBANDS =      -153.05754362
  atomic energy  EATOM  =      2457.04034448
  Solvation  Ediel_sol  =         0.00000000
  free energy    TOTEN  =       229.47595050 eV

  energy without entropy =      229.47696443  energy(sigma->0) =      229.47645746

[...]

 eigenvalue-minimisations  :  1064
 total energy-change (2. order) :-0.2218207E+03  (-0.2174796E+03)
 number of electron      28.0000000 magnetization
 augmentation part       28.0000000 magnetization

[...]

 Broyden mixing:
  rms(total) = 0.40644E+00    rms(broyden)= 0.40643E+00
  rms(prec ) = 0.92564E+00
  weight for this iteration     100.00

[...]

 eigenvalues of (default mixing * dielectric matrix)
  average eigenvalue GAMMA=   2.0126
  2.0126

[...]

 eigenvalue-minimisations  :  1126
 total energy-change (2. order) : 0.1221360E-07  (-0.1146766E-08)
 number of electron      28.0000017 magnetization
 augmentation part        9.6201582 magnetization

[...]

 Broyden mixing:
  rms(total) = 0.45571E-05    rms(broyden)= 0.45571E-05
  rms(prec ) = 0.48120E-05
  weight for this iteration     100.00

 eigenvalues of (default mixing * dielectric matrix)
  average eigenvalue GAMMA=   1.7768
  3.1491  2.7537  2.7537  1.9486  1.9486  1.4073  1.3219  1.0022  1.0022  1.0689
  1.1892

[...]

--------------------------------------- Iteration      1(  17)  ---------------------------------------

 eigenvalue-minimisations  :   610
 total energy-change (2. order) :-0.1295120E-08  (-0.1265707E-10)
 number of electron      28.0000017 magnetization
 augmentation part        9.6201564 magnetization

 Free energy of the ion-electron system (eV)
  alpha Z        PSCENC =        50.22067890
  Ewald energy   TEWEN  =     -1342.03899423
  -Hartree energ DENC   =      -690.31091777
  -exchange      EXHF   =         0.00000000
  -V(xc)+E(xc)   XCENC  =        38.96487434
  PAW double counting   =      1907.20433271    -2026.61676797
  entropy T*S    EENTRO =        -0.00000000
  eigenvalues    EBANDS =      -404.02257215
  atomic energy  EATOM  =      2457.04034448
  Solvation  Ediel_sol  =         0.00000000
  free energy    TOTEN  =        -9.55902169 eV

  energy without entropy =       -9.55902169  energy(sigma->0) =       -9.55902169

 average (electrostatic) potential at core
  the test charge radii are     1.1045  0.9254  1.1712
  (the norm of the test charge is              1.0000)
       1 -36.2377       2 -47.9659       3 -47.9659       4 -89.0705

 E-fermi :   2.2964     XC(G=0):  -8.0108     alpha+bet : -8.0669

 k-point     1 :       0.0000    0.0000    0.0000
  band No.  band energies     occupation
      1     -28.9743      2.00000
      2     -22.1695      2.00000
      3     -22.1695      2.00000
      4     -22.1695      2.00000
      5     -22.1597      2.00000
      6     -22.1597      2.00000
      7     -22.1597      2.00000
      8     -12.4922      2.00000
      9     -12.4922      2.00000
     10     -12.4922      2.00000
     11      -5.8463      2.00000
     12       2.0816      2.00000
     13       2.0816      2.00000
     14       2.0816      2.00000
     15       2.7374      0.00000
     16       4.8620      0.00000
     17       4.8620      0.00000
     18       4.8620      0.00000

[...]

 k-point    29 :       0.2500    0.2500    0.2500
  band No.  band energies     occupation
      1     -28.9739      2.00000
      2     -22.1725      2.00000
      3     -22.1712      2.00000
      4     -22.1649      2.00000
      5     -22.1649      2.00000
      6     -22.1578      2.00000
      7     -22.1578      2.00000
      8     -12.5036      2.00000
      9     -12.5036      2.00000
     10     -12.4982      2.00000
     11      -5.4652      2.00000
     12       0.5948      2.00000
     13       0.5948      2.00000
     14       0.9877      2.00000
     15       5.0060      0.00000
     16       5.3530      0.00000
     17       5.3530      0.00000
     18       6.0228      0.00000

 soft charge-density along one line, spin component           1
         0         1         2         3         4         5         6         7         8         9
 total charge-density along one line

------------------------ aborting loop because EDIFF is reached ----------------------------------------

  FORCE on cell =-STRESS in cart. coord.  units (eV):
  Direction    XX          YY          ZZ          XY          YZ          ZX
  Alpha Z    50.22068    50.22068    50.22068
  Ewald    -447.34672  -447.34672  -447.34672    -0.00000    -0.00000    -0.00061
  Hartree   230.10363   230.10363   230.10363    -0.00000     0.00000    -0.00034
  E(xc)    -133.14299  -133.14301  -133.14309     0.00000    -0.00000     0.00005
  Local      -9.39658    -9.39653    -9.39647    -0.00000     0.00000     0.00085
  n-local   -17.87362   -18.01533   -20.51831     1.55291    -0.65470     1.19429
  augment    75.80670    75.80664    75.80662    -0.00000     0.00000     0.00009
  Kinetic   253.30556   253.30844   251.06967     2.84284    -1.27229     1.84779
  Fock        0.00000     0.00000     0.00000     0.00000     0.00000     0.00000
  Total       0.00350     0.00350     0.00350     0.00000    -0.00000    -0.00000
  in kB       0.04716     0.04716     0.04716     0.00000    -0.00000    -0.00000

 VOLUME and BASIS-vectors are now :
  energy-cutoff  :      520.00
  volume of cell :      118.80
      direct lattice vectors                 reciprocal lattice vectors
     3.901726192 -3.901726192  0.000000000     0.128148408 -0.128148408 -0.128148408
    -3.901726192  0.000000000 -3.901726192     0.000000000  0.000000000 -0.256296816
     3.901726192  3.901726192  0.000000000     0.128148408  0.128148408 -0.128148408

  length of vectors
     5.517874097  5.517874097  5.517874097     0.221959554  0.256296816  0.221959554

 FORCES acting on ions
    electron-ion (+dipol)            ewald-force                    non-local-force                 convergence-correction
   0.525E-03 -.341E-11 0.187E-03   0.380E-03 0.111E-13 -.292E-03   0.381E-20 0.847E-21 0.000E+00   -.419E-07 0.263E-13 0.852E-08
   -.924E-03 0.784E-03 0.929E-03   -.260E-03 0.454E-03 0.227E-03   0.151E-16 -.152E-16 0.867E-18   0.106E-07 -.641E-07 -.722E-08
   -.924E-03 -.784E-03 0.929E-03   -.260E-03 -.454E-03 0.227E-03   -.271E-19 -.176E-17 0.781E-17   0.106E-07 0.641E-07 -.722E-08
   -.999E-04 0.397E-11 0.104E-03   0.139E-03 -.259E-14 -.162E-03   -.847E-21 0.000E+00 0.000E+00   0.643E-08 -.501E-14 0.216E-08
   -.142E-02 -.100E-09 0.215E-02   -.226E-15 0.177E-15 0.484E-15   0.151E-16 -.170E-16 0.867E-17   -.143E-07 0.281E-13 -.377E-08

 POSITION                                       TOTAL-FORCE (eV/Angst)
      3.90173      0.00000      0.00000        -0.000000     -0.000000     -0.000000
      1.95087     -1.95087     -1.95087        -0.000000     -0.000000      0.000000
      1.95087      1.95087     -1.95087         0.000000      0.000000      0.000000
      0.00000      0.00000      0.00000        -0.000000     -0.000000     -0.000000
    total drift:                               -0.001423     -0.000000      0.002149

  FREE ENERGIE OF THE ION-ELECTRON SYSTEM (eV)
  free  energy   TOTEN  =        -9.55902169 eV

  energy  without entropy=       -9.55902169  energy(sigma->0) =       -9.55902169