 vasp.5.4.4.18Apr17-6-g9f103f2a35 (build Jun 23 2019 17:35:09) complex

 executed on             LinuxIFC date 2020.01.15  15:39:58

 INCAR:
 POTCAR:    PAW_PBE Cs_sv 08Apr2002
 POTCAR:    PAW_PBE K_sv 06Sep2000
 POTCAR:    PAW_PBE Sb 06Sep2000

 POTCAR:    PAW_PBE Cs_sv 08Apr2002
   VRHFIN =Cs: 5s5p6s

   TITEL  = PAW_PBE Cs_sv 08Apr2002
   POMASS =  132.900; ZVAL   =    9.000    mass and valenz
   ENMAX  =  220.318; ENMIN  =  165.238 eV

 POTCAR:    PAW_PBE K_sv 06Sep2000
   VRHFIN =K:  3s3p4s

   TITEL  = PAW_PBE K_sv 06Sep2000
   POMASS =   39.098; ZVAL   =    9.000    mass and valenz
   ENMAX  =  259.264; ENMIN  =  194.448 eV

 POTCAR:    PAW_PBE Sb 06Sep2000
   VRHFIN =Sb: s2p3

   TITEL  = PAW_PBE Sb 06Sep2000
   POMASS =  121.750; ZVAL   =    5.000    mass and valenz
   ENMAX  =  172.069; ENMIN  =  129.052 eV

  PAW_PBE Cs_sv 08Apr2002               :
  PAW_PBE K_sv 06Sep2000                :
  PAW_PBE Sb 06Sep2000                  :

 POSCAR: Cs Sb K
  positions in direct lattice
  velocities in cartesian coordinates
 exchange correlation table for  LEXCH =        8
   RHO(1)=    0.500       N(1)  =     2000
   RHO(2)=  100.500       N(2)  =     4000

 ion  position               nearest neighbor table
   1  0.500  0.000  0.500-
   2  0.750  0.500  0.250-   4 3.79   4 3.79   4 3.79   4 3.79
   3  0.250  0.500  0.750-   4 3.79   4 3.79   4 3.79   4 3.79
   4  0.000  0.000  0.000-   2 3.79   3 3.79   2 3.79   3 3.79   2 3.79   3 3.79   2 3.79   3 3.79

  LATTYP: Found a face centered cubic cell.
 ALAT       =     8.7605271049

  Lattice vectors:

 A1 = (  -4.3802635524,   0.0000000000,  -4.3802635524)
 A2 = (   0.0000000000,  -4.3802635524,  -4.3802635524)
 A3 = (  -4.3802635524,  -4.3802635524,   0.0000000000)

Analysis of symmetry for initial positions (statically):
 Subroutine PRICEL returns:
 Original cell was already a primitive cell.

 Routine SETGRP: Setting up the symmetry group for a
 face centered cubic supercell.

 Subroutine GETGRP returns: Found 48 space group operations
 (whereof 48 operations were pure point group operations)
 out of a pool of 48 trial point group operations.

The static configuration has the point symmetry O_h .

Analysis of symmetry for dynamics (positions and initial velocities):
 Subroutine PRICEL returns:
 Original cell was already a primitive cell.

 Routine SETGRP: Setting up the symmetry group for a
 face centered cubic supercell.

 Subroutine GETGRP returns: Found 48 space group operations
 (whereof 48 operations were pure point group operations)
 out of a pool of 48 trial point group operations.

The dynamic configuration has the point symmetry O_h .

 Subroutine INISYM returns: Found 48 space group operations
 (whereof 48 operations are pure point group operations),
 and found     1 'primitive' translations

 KPOINTS: KPOINTS

Automatic generation of k-mesh.
Space group operators:
 irot       det(A)        alpha          n_x          n_y          n_z        tau_x        tau_y        tau_z
    1     1.000000     0.000000     1.000000     0.000000     0.000000     0.000000     0.000000     0.000000
    2    -1.000000     0.000000     1.000000     0.000000     0.000000     0.000000     0.000000     0.000000
    3     1.000000   120.000000     0.577350     0.577350     0.577350     0.000000     0.000000     0.000000
    4    -1.000000   120.000000     0.577350     0.577350     0.577350     0.000000     0.000000     0.000000
    5     1.000000   120.000000    -0.577350    -0.577350    -0.577350     0.000000     0.000000     0.000000
    6    -1.000000   120.000000    -0.577350    -0.577350    -0.577350     0.000000     0.000000     0.000000
    7     1.000000    90.000000     0.000000     0.000000     1.000000     0.000000     0.000000     0.000000
    8    -1.000000    90.000000     0.000000     0.000000     1.000000     0.000000     0.000000     0.000000
    9     1.000000   180.000000     0.707107     0.000000     0.707107     0.000000     0.000000     0.000000
   10    -1.000000   180.000000     0.707107     0.000000     0.707107     0.000000     0.000000     0.000000
   11     1.000000    90.000000    -1.000000     0.000000     0.000000     0.000000     0.000000     0.000000
   12    -1.000000    90.000000    -1.000000     0.000000     0.000000     0.000000     0.000000     0.000000
   13     1.000000   180.000000     0.000000     0.000000     1.000000     0.000000     0.000000     0.000000
   14    -1.000000   180.000000     0.000000     0.000000     1.000000     0.000000     0.000000     0.000000
   15     1.000000   120.000000    -0.577350     0.577350    -0.577350     0.000000     0.000000     0.000000
   16    -1.000000   120.000000    -0.577350     0.577350    -0.577350     0.000000     0.000000     0.000000
   17     1.000000   120.000000    -0.577350     0.577350     0.577350     0.000000     0.000000     0.000000
   18    -1.000000   120.000000    -0.577350     0.577350     0.577350     0.000000     0.000000     0.000000
   19     1.000000    90.000000     0.000000     0.000000    -1.000000     0.000000     0.000000     0.000000
   20    -1.000000    90.000000     0.000000     0.000000    -1.000000     0.000000     0.000000     0.000000
   21     1.000000    90.000000     0.000000     1.000000     0.000000     0.000000     0.000000     0.000000
   22    -1.000000    90.000000     0.000000     1.000000     0.000000     0.000000     0.000000     0.000000
   23     1.000000   180.000000     0.000000     0.707107     0.707107     0.000000     0.000000     0.000000
   24    -1.000000   180.000000     0.000000     0.707107     0.707107     0.000000     0.000000     0.000000
   25     1.000000   120.000000     0.577350    -0.577350    -0.577350     0.000000     0.000000     0.000000
   26    -1.000000   120.000000     0.577350    -0.577350    -0.577350     0.000000     0.000000     0.000000
   27     1.000000   120.000000     0.577350     0.577350    -0.577350     0.000000     0.000000     0.000000
   28    -1.000000   120.000000     0.577350     0.577350    -0.577350     0.000000     0.000000     0.000000
   29     1.000000   180.000000     0.000000     1.000000     0.000000     0.000000     0.000000     0.000000
   30    -1.000000   180.000000     0.000000     1.000000     0.000000     0.000000     0.000000     0.000000
   31     1.000000    90.000000     1.000000     0.000000     0.000000     0.000000     0.000000     0.000000
   32    -1.000000    90.000000     1.000000     0.000000     0.000000     0.000000     0.000000     0.000000
   33     1.000000   180.000000     0.707107     0.707107     0.000000     0.000000     0.000000     0.000000
   34    -1.000000   180.000000     0.707107     0.707107     0.000000     0.000000     0.000000     0.000000
   35     1.000000    90.000000     0.000000    -1.000000     0.000000     0.000000     0.000000     0.000000
   36    -1.000000    90.000000     0.000000    -1.000000     0.000000     0.000000     0.000000     0.000000
   37     1.000000   120.000000     0.577350    -0.577350     0.577350     0.000000     0.000000     0.000000
   38    -1.000000   120.000000     0.577350    -0.577350     0.577350     0.000000     0.000000     0.000000
   39     1.000000   180.000000     1.000000     0.000000     0.000000     0.000000     0.000000     0.000000
   40    -1.000000   180.000000     1.000000     0.000000     0.000000     0.000000     0.000000     0.000000
   41     1.000000   120.000000    -0.577350    -0.577350     0.577350     0.000000     0.000000     0.000000
   42    -1.000000   120.000000    -0.577350    -0.577350     0.577350     0.000000     0.000000     0.000000
   43     1.000000   180.000000     0.707107     0.000000    -0.707107     0.000000     0.000000     0.000000
   44    -1.000000   180.000000     0.707107     0.000000    -0.707107     0.000000     0.000000     0.000000
   45     1.000000   180.000000     0.707107    -0.707107     0.000000     0.000000     0.000000     0.000000
   46    -1.000000   180.000000     0.707107    -0.707107     0.000000     0.000000     0.000000     0.000000
   47     1.000000   180.000000     0.000000    -0.707107     0.707107     0.000000     0.000000     0.000000
   48    -1.000000   180.000000     0.000000    -0.707107     0.707107     0.000000     0.000000     0.000000

 Subroutine IBZKPT returns following result:

 Found     29 irreducible k-points:

 Following reciprocal coordinates:
            Coordinates               Weight
  0.000000  0.000000  0.000000      1.000000
  0.125000  0.000000  0.000000      8.000000
  0.250000  0.000000  0.000000      8.000000
  0.375000  0.000000  0.000000      8.000000
  0.500000  0.000000  0.000000      4.000000
  0.000000  0.125000  0.000000      6.000000
  0.125000  0.125000  0.000000     24.000000
  0.250000  0.125000  0.000000     24.000000
  0.375000  0.125000  0.000000     24.000000
  0.500000  0.125000  0.000000     24.000000
 -0.375000  0.125000  0.000000     24.000000
 -0.250000  0.125000  0.000000     12.000000
  0.000000  0.250000  0.000000      6.000000
  0.125000  0.250000  0.000000     24.000000
  0.250000  0.250000  0.000000     24.000000
  0.375000  0.250000  0.000000     24.000000
  0.500000  0.250000  0.000000     12.000000
  0.000000  0.375000  0.000000      6.000000
  0.125000  0.375000  0.000000     24.000000
  0.250000  0.375000  0.000000     12.000000
  0.000000  0.500000  0.000000      3.000000
  0.125000  0.125000  0.125000     24.000000
  0.250000  0.125000  0.125000     48.000000
  0.375000  0.125000  0.125000     24.000000
  0.125000  0.250000  0.125000     24.000000
  0.250000  0.250000  0.125000     48.000000
  0.375000  0.250000  0.125000     24.000000
  0.125000  0.375000  0.125000     12.000000
  0.250000  0.250000  0.250000      6.000000

 Following cartesian coordinates:
            Coordinates               Weight
  0.000000  0.000000  0.000000      1.000000
  0.014269 -0.014269 -0.014269      8.000000
  0.028537 -0.028537 -0.028537      8.000000
  0.042806 -0.042806 -0.042806      8.000000
  0.057074 -0.057074 -0.057074      4.000000
  0.000000  0.000000 -0.028537      6.000000
  0.014269 -0.014269 -0.042806     24.000000
  0.028537 -0.028537 -0.057074     24.000000
  0.042806 -0.042806 -0.071343     24.000000
  0.057074 -0.057074 -0.085611     24.000000
 -0.042806  0.042806  0.014269     24.000000
 -0.028537  0.028537  0.000000     12.000000
  0.000000  0.000000 -0.057074      6.000000
  0.014269 -0.014269 -0.071343     24.000000
  0.028537 -0.028537 -0.085611     24.000000
  0.042806 -0.042806 -0.099880     24.000000
  0.057074 -0.057074 -0.114148     12.000000
  0.000000  0.000000 -0.085611      6.000000
  0.014269 -0.014269 -0.099880     24.000000
  0.028537 -0.028537 -0.114148     12.000000
  0.000000  0.000000 -0.114148      3.000000
  0.028537  0.000000 -0.057074     24.000000
  0.042806 -0.014269 -0.071343     48.000000
  0.057074 -0.028537 -0.085611     24.000000
  0.028537  0.000000 -0.085611     24.000000
  0.042806 -0.014269 -0.099880     48.000000
  0.057074 -0.028537 -0.114148     24.000000
  0.028537  0.000000 -0.114148     12.000000
  0.057074  0.000000 -0.114148      6.000000

 SYSTEM =  unknown system
 POSCAR =  Cs Sb K

[...]
   EPSILON=  1.0000000 bulk dielectric constant

 Exchange correlation treatment:
   GGA     =    PE    GGA type
   VOSKOWN=      0    Vosko Wilk Nusair interpolation
   LHFCALC =     F    Hartree Fock is set to
   LHFONE  =     F    Hartree Fock one center treatment
   AEXX    =    0.0000 exact exchange contribution

 Linear response parameters
   LEPSILON=     F    determine dielectric tensor
   LRPA    =     F    only Hartree local field effects (RPA)
   LNABLA  =     F    use nabla operator in PAW spheres
   LVEL    =     F    velocity operator in full k-point grid
   LINTERFAST=   F  fast interpolation
   KINTER  =     0    interpolate to denser k-point grid
   CSHIFT  =0.1000    complex shift for real part using Kramers Kronig
   OMEGAMAX=  -1.0    maximum frequency
   DEG_THRESHOLD= 0.2000000E-02 threshold for treating states as degnerate
   RTIME   =   -0.100 relaxation time in fs
  (WPLASMAI=    0.000 imaginary part of plasma frequency in eV, 0.658/RTIME)
   DFIELD  = 0.0000000 0.0000000 0.0000000 field for delta impulse in time

 Orbital magnetization related:
   ORBITALMAG=     F  switch on orbital magnetization
   LCHIMAG   =     F  perturbation theory with respect to B field
   DQ        =  0.001000  dq finite difference perturbation B field
   LLRAUG    =     F  two centre corrections for induced B field

 Static calculation
 charge density and potential will be updated during run
 non-spin polarized calculation
 Variant of blocked Davidson
 Davidson routine will perform the subspace rotation
 perform sub-space diagonalisation
    after iterative eigenvector-optimisation
 modified Broyden-mixing scheme, WC =      100.0
 initial mixing is a Kerker type mixing with AMIX =  0.4000 and BMIX =      1.0000
 Hartree-type preconditioning will be used
 using additional bands            4
 reciprocal scheme for non local part
 use partial core corrections
 calculate Harris-corrections to forces
   (improved forces if not selfconsistent)
 use gradient corrections
 use of overlap-Matrix (Vanderbilt PP)
 Gauss-broadening in eV      SIGMA  =   0.05

  energy-cutoff  :      520.00
  volume of cell :      168.09
      direct lattice vectors                 reciprocal lattice vectors
     4.380263552 -4.380263552  0.000000000     0.114148383 -0.114148383 -0.114148383
    -4.380263552  0.000000000 -4.380263552     0.000000000  0.000000000 -0.228296765
     4.380263552  4.380263552  0.000000000     0.114148383  0.114148383 -0.114148383

  length of vectors
     6.194628123  6.194628123  6.194628123     0.197710798  0.228296765  0.197710798

 k-points in units of 2pi/SCALE and weight: KPOINTS
   0.00000000  0.00000000  0.00000000       0.002
   0.01426855 -0.01426855 -0.01426855       0.016
   0.02853710 -0.02853710 -0.02853710       0.016
   0.04280564 -0.04280564 -0.04280564       0.016
   0.05707419 -0.05707419 -0.05707419       0.008
   0.00000000  0.00000000 -0.02853710       0.012
   0.01426855 -0.01426855 -0.04280564       0.047
   0.02853710 -0.02853710 -0.05707419       0.047
   0.04280564 -0.04280564 -0.07134274       0.047
   0.05707419 -0.05707419 -0.08561129       0.047
  -0.04280564  0.04280564  0.01426855       0.047
  -0.02853710  0.02853710  0.00000000       0.023
   0.00000000  0.00000000 -0.05707419       0.012
   0.01426855 -0.01426855 -0.07134274       0.047
   0.02853710 -0.02853710 -0.08561129       0.047
   0.04280564 -0.04280564 -0.09987983       0.047
   0.05707419 -0.05707419 -0.11414838       0.023
   0.00000000  0.00000000 -0.08561129       0.012
   0.01426855 -0.01426855 -0.09987983       0.047
   0.02853710 -0.02853710 -0.11414838       0.023
   0.00000000  0.00000000 -0.11414838       0.006
   0.02853710  0.00000000 -0.05707419       0.047
   0.04280564 -0.01426855 -0.07134274       0.094
   0.05707419 -0.02853710 -0.08561129       0.047
   0.02853710  0.00000000 -0.08561129       0.047
   0.04280564 -0.01426855 -0.09987983       0.094
   0.05707419 -0.02853710 -0.11414838       0.047
   0.02853710  0.00000000 -0.11414838       0.023
   0.05707419  0.00000000 -0.11414838       0.012

 k-points in reciprocal lattice and weights: KPOINTS
   0.00000000  0.00000000  0.00000000       0.002
   0.12500000  0.00000000  0.00000000       0.016
   0.25000000  0.00000000  0.00000000       0.016
   0.37500000  0.00000000  0.00000000       0.016
   0.50000000  0.00000000  0.00000000       0.008
   0.00000000  0.12500000  0.00000000       0.012
   0.12500000  0.12500000  0.00000000       0.047
   0.25000000  0.12500000  0.00000000       0.047
   0.37500000  0.12500000  0.00000000       0.047
   0.50000000  0.12500000  0.00000000       0.047
  -0.37500000  0.12500000  0.00000000       0.047
  -0.25000000  0.12500000  0.00000000       0.023
   0.00000000  0.25000000  0.00000000       0.012
   0.12500000  0.25000000  0.00000000       0.047
   0.25000000  0.25000000  0.00000000       0.047
   0.37500000  0.25000000  0.00000000       0.047
   0.50000000  0.25000000  0.00000000       0.023
   0.00000000  0.37500000  0.00000000       0.012
   0.12500000  0.37500000  0.00000000       0.047
   0.25000000  0.37500000  0.00000000       0.023
   0.00000000  0.50000000  0.00000000       0.006
   0.12500000  0.12500000  0.12500000       0.047
   0.25000000  0.12500000  0.12500000       0.094
   0.37500000  0.12500000  0.12500000       0.047
   0.12500000  0.25000000  0.12500000       0.047
   0.25000000  0.25000000  0.12500000       0.094
   0.37500000  0.25000000  0.12500000       0.047
   0.12500000  0.37500000  0.12500000       0.023
   0.25000000  0.25000000  0.25000000       0.012

 position of ions in fractional coordinates (direct lattice)
   0.50000046  0.00000000  0.50000046
   0.74999897  0.49999931  0.24999966
   0.24999966  0.49999931  0.74999897
   0.00000000  0.00000000  0.00000000

 position of ions in cartesian coordinates  (Angst):
   4.38026756  0.00000000  0.00000000
   2.19012877 -2.19012877 -2.19012877
   2.19012877  2.19012877 -2.19012877
   0.00000000  0.00000000  0.00000000

 k-point  1 :   0.0000 0.0000 0.0000  plane waves:    4573
 k-point  2 :   0.1250 0.0000 0.0000  plane waves:    4546
 k-point  3 :   0.2500 0.0000 0.0000  plane waves:    4537
 k-point  4 :   0.3750 0.0000 0.0000  plane waves:    4537
 k-point  5 :   0.5000 0.0000 0.0000  plane waves:    4512
 k-point  6 :   0.0000 0.1250 0.0000  plane waves:    4549
 k-point  7 :   0.1250 0.1250 0.0000  plane waves:    4534
 k-point  8 :   0.2500 0.1250 0.0000  plane waves:    4538
 k-point  9 :   0.3750 0.1250 0.0000  plane waves:    4510
 k-point 10 :   0.5000 0.1250 0.0000  plane waves:    4528
 k-point 11 :  -0.3750 0.1250 0.0000  plane waves:    4547
 k-point 12 :  -0.2500 0.1250 0.0000  plane waves:    4549
 k-point 13 :   0.0000 0.2500 0.0000  plane waves:    4552
 k-point 14 :   0.1250 0.2500 0.0000  plane waves:    4528
 k-point 15 :   0.2500 0.2500 0.0000  plane waves:    4514
 k-point 16 :   0.3750 0.2500 0.0000  plane waves:    4525
 k-point 17 :   0.5000 0.2500 0.0000  plane waves:    4514
 k-point 18 :   0.0000 0.3750 0.0000  plane waves:    4536
 k-point 19 :   0.1250 0.3750 0.0000  plane waves:    4525
 k-point 20 :   0.2500 0.3750 0.0000  plane waves:    4526
 k-point 21 :   0.0000 0.5000 0.0000  plane waves:    4488
 k-point 22 :   0.1250 0.1250 0.1250  plane waves:    4544
 k-point 23 :   0.2500 0.1250 0.1250  plane waves:    4530
 k-point 24 :   0.3750 0.1250 0.1250  plane waves:    4508
 k-point 25 :   0.1250 0.2500 0.1250  plane waves:    4510
 k-point 26 :   0.2500 0.2500 0.1250  plane waves:    4521
 k-point 27 :   0.3750 0.2500 0.1250  plane waves:    4524
 k-point 28 :   0.1250 0.3750 0.1250  plane waves:    4530
 k-point 29 :   0.2500 0.2500 0.2500  plane waves:    4540

 maximum and minimum number of plane-waves per node :       662      634

 maximum number of plane-waves:      4573
 maximum index in each direction:
   IXMAX=   11   IYMAX=   11   IZMAX=   11
   IXMIN=  -12   IYMIN=  -12   IZMIN=  -11

 parallel 3D FFT for wavefunctions:
    minimum data exchange during FFTs selected (reduces bandwidth)
 parallel 3D FFT for charge:
    minimum data exchange during FFTs selected (reduces bandwidth)

 Broyden mixing: mesh for mixing (old mesh)
   NGX = 23   NGY = 23   NGZ = 23
  (NGX  = 96   NGY  = 96   NGZ  = 96)
  gives a total of  12167 points

 initial charge density was supplied:
 charge density of overlapping atoms calculated
 number of electron      32.0000000 magnetization
 keeping initial charge density in first step

 Maximum index for augmentation-charges         5424 (set IRDMAX)

 First call to EWALD:  gamma=   0.321
 Maximum number of real-space cells 3x 3x 3
 Maximum number of reciprocal cells 3x 3x 3

--------------------------------------- Iteration      1(   1)  ---------------------------------------

 eigenvalue-minimisations  :  1160
 total energy-change (2. order) : 0.2311905E+03  (-0.1335990E+04)
 number of electron      32.0000000 magnetization
 augmentation part       32.0000000 magnetization

 Free energy of the ion-electron system (eV)
  alpha Z        PSCENC =        88.25421461
  Ewald energy   TEWEN  =     -1567.71660157
  -Hartree energ DENC   =      -541.51905130
  -exchange      EXHF   =         0.00000000
  -V(xc)+E(xc)   XCENC  =        35.18803896
  PAW double counting   =      1776.42413506    -1705.39518631
  entropy T*S    EENTRO =        -0.00210196
  eigenvalues    EBANDS =      -109.68652808
  atomic energy  EATOM  =      2255.64356714
  Solvation  Ediel_sol  =         0.00000000
  free energy    TOTEN  =       231.19048654 eV

  energy without entropy =      231.19258850  energy(sigma->0) =      231.19153752

[...]

 eigenvalue-minimisations  :  1472
 total energy-change (2. order) :-0.2209342E+03  (-0.2155126E+03)
 number of electron      32.0000000 magnetization
 augmentation part       32.0000000 magnetization

[...]

 Broyden mixing:
  rms(total) = 0.47195E+00    rms(broyden)= 0.47195E+00
  rms(prec ) = 0.11560E+01
  weight for this iteration     100.00

[...]

 eigenvalues of (default mixing * dielectric matrix)
  average eigenvalue GAMMA=   1.5655
  1.5655

[...]

 eigenvalue-minimisations  :  1176
 total energy-change (2. order) : 0.5440643E-07  (-0.2625535E-07)
 number of electron      32.0000000 magnetization
 augmentation part        0.0930742 magnetization

[...]

 Broyden mixing:
  rms(total) = 0.42488E-04    rms(broyden)= 0.42488E-04
  rms(prec ) = 0.45358E-04
  weight for this iteration     100.00

 eigenvalues of (default mixing * dielectric matrix)
  average eigenvalue GAMMA=   1.6976
  3.2738  2.6757  2.3344  2.3344  1.9516  1.1802  1.1802  1.0226  1.0226  0.8419
  0.8556

[...]

--------------------------------------- Iteration      1(  17)  ---------------------------------------

 eigenvalue-minimisations  :   912
 total energy-change (2. order) :-0.6754362E-08  (-0.2145798E-09)
 number of electron      32.0000000 magnetization
 augmentation part        0.0930724 magnetization

 Free energy of the ion-electron system (eV)
  alpha Z        PSCENC =        88.25421461
  Ewald energy   TEWEN  =     -1567.71660157
  -Hartree energ DENC   =      -528.60223538
  -exchange      EXHF   =         0.00000000
  -V(xc)+E(xc)   XCENC  =        35.31471631
  PAW double counting   =      1903.33416293    -1833.83280901
  entropy T*S    EENTRO =        -0.00000000
  eigenvalues    EBANDS =      -361.05946801
  atomic energy  EATOM  =      2255.64356714
  Solvation  Ediel_sol  =         0.00000000
  free energy    TOTEN  =        -8.66445298 eV

  energy without entropy =       -8.66445298  energy(sigma->0) =       -8.66445298

 average (electrostatic) potential at core
  the test charge radii are     1.1312  1.1045  1.1712
  (the norm of the test charge is              1.0000)
       1 -50.8155       2 -36.4155       3 -36.4155       4 -89.0321

 E-fermi :   2.0554     XC(G=0):  -7.6883     alpha+bet : -7.5888

 k-point     1 :       0.0000    0.0000    0.0000
  band No.  band energies     occupation
      1     -29.1481      2.00000
      2     -29.1370      2.00000
      3     -21.0868      2.00000
      4     -12.6874      2.00000
      5     -12.6874      2.00000
      6     -12.6874      2.00000
      7     -12.6315      2.00000
      8     -12.6315      2.00000
      9     -12.6315      2.00000
     10      -7.9371      2.00000
     11      -7.9371      2.00000
     12      -7.9371      2.00000
     13      -5.4217      2.00000
     14       1.7910      2.00000
     15       1.7910      2.00000
     16       1.7910      2.00000
     17       2.6388      0.00000
     18       3.9793      0.00000
     19       3.9793      0.00000
     20       4.4815      0.00000

[...]

 k-point    29 :       0.2500    0.2500    0.2500
  band No.  band energies     occupation
      1     -29.1423      2.00000
      2     -29.1423      2.00000
      3     -21.0883      2.00000
      4     -12.7207      2.00000
      5     -12.6955      2.00000
      6     -12.6648      2.00000
      7     -12.6648      2.00000
      8     -12.6149      2.00000
      9     -12.6140      2.00000
     10      -7.9561      2.00000
     11      -7.9561      2.00000
     12      -7.9297      2.00000
     13      -5.2608      2.00000
     14       1.2347      2.00000
     15       1.2347      2.00000
     16       1.3863      2.00000
     17       4.1970      0.00000
     18       4.3859      0.00000
     19       4.3859      0.00000
     20       5.2398      0.00000

 soft charge-density along one line, spin component           1
         0         1         2         3         4         5         6         7         8         9
 total charge-density along one line

------------------------ aborting loop because EDIFF is reached ----------------------------------------

  FORCE on cell =-STRESS in cart. coord.  units (eV):
  Direction    XX          YY          ZZ          XY          YZ          ZX
  Alpha Z    88.25421    88.25421    88.25421
  Ewald    -522.57265  -522.57265  -522.57265    -0.00000    -0.00000     0.00041
  Hartree   176.20066   176.20066   176.20066    -0.00000     0.00000     0.00004
  E(xc)    -128.25522  -128.25522  -128.25522     0.00000     0.00000     0.00000
  Local      23.79572    23.79572    23.79572    -0.00000    -0.00000    -0.00032
  n-local   -21.24725   -21.22834   -22.34671     0.91508    -0.47885     0.72563
  augment   -13.48649   -13.48649   -13.48649    -0.00000     0.00000     0.00000
  Kinetic   398.11555   398.60365   396.29598     2.14129    -1.26945     1.82126
  Fock        0.00000     0.00000     0.00000     0.00000     0.00000     0.00000
  Total       0.00053     0.00053     0.00053    -0.00000    -0.00000    -0.00000
  in kB       0.00506     0.00506     0.00506    -0.00000    -0.00000    -0.00000

 VOLUME and BASIS-vectors are now :
  energy-cutoff  :      520.00
  volume of cell :      168.09
      direct lattice vectors                 reciprocal lattice vectors
     4.380263552 -4.380263552  0.000000000     0.114148383 -0.114148383 -0.114148383
    -4.380263552  0.000000000 -4.380263552     0.000000000  0.000000000 -0.228296765
     4.380263552  4.380263552  0.000000000     0.114148383  0.114148383 -0.114148383

  length of vectors
     6.194628123  6.194628123  6.194628123     0.197710798  0.228296765  0.197710798

 FORCES acting on ions
    electron-ion (+dipol)            ewald-force                    non-local-force                 convergence-correction
   -.225E-02 -.714E-13 -.279E-04   -.472E-03 0.753E-14 0.175E-03   0.000E+00 -.847E-21 0.000E+00   0.491E-06 0.138E-13 -.603E-07
   0.222E-02 -.217E-02 -.219E-02   0.252E-03 -.310E-03 -.136E-03   -.651E-17 -.130E-17 0.867E-17   -.137E-06 0.541E-06 0.653E-07
   0.222E-02 0.217E-02 -.219E-02   0.252E-03 0.310E-03 -.136E-03   -.121E-16 -.520E-17 -.121E-16   -.137E-06 -.541E-06 0.653E-07
   0.300E-04 0.485E-13 -.155E-04   -.323E-04 -.142E-13 0.970E-04   -.212E-21 0.212E-21 0.000E+00   -.133E-06 0.384E-14 -.249E-07
   0.222E-02 0.400E-12 -.443E-02   -.161E-15 -.111E-15 0.643E-15   -.186E-16 -.651E-17 -.347E-17   0.848E-07 0.169E-13 0.453E-07

 POSITION                                       TOTAL-FORCE (eV/Angst)
      4.38027      0.00000      0.00000         0.000000     -0.000000      0.000000
      2.19013     -2.19013     -2.19013        -0.000000      0.000000     -0.000000
      2.19013      2.19013     -2.19013        -0.000000     -0.000000      0.000000
      0.00000      0.00000      0.00000         0.000000     -0.000000      0.000000
    total drift:                                0.002225      0.000000     -0.004432

  FREE ENERGIE OF THE ION-ELECTRON SYSTEM (eV)
  free  energy   TOTEN  =        -8.66445298 eV

  energy  without entropy=       -8.66445298  energy(sigma->0) =       -8.66445298