 vasp.5.4.4.18Apr17-6-g9f103f2a35 (build Jun 23 2019 17:35:09) complex

 executed on             LinuxIFC date 2020.01.15  15:43:03

 INCAR:
 POTCAR:    PAW_PBE Li_sv 10Sep2004
 POTCAR:    PAW_PBE Na_pv 19Sep2006
 POTCAR:    PAW_PBE Sb 06Sep2000

 POTCAR:    PAW_PBE Li_sv 10Sep2004
   VRHFIN =Li: 1s2s2p

   TITEL  = PAW_PBE Li_sv 10Sep2004
   POMASS =    7.010; ZVAL   =    3.000    mass and valenz
   ENMAX  =  499.034; ENMIN  =  374.276 eV

 POTCAR:    PAW_PBE Na_pv 19Sep2006
   VRHFIN =Na: p6s1

   TITEL  = PAW_PBE Na_pv 19Sep2006
   POMASS =   22.990; ZVAL   =    7.000    mass and valenz
   ENMAX  =  259.561; ENMIN  =  194.671 eV

 POTCAR:    PAW_PBE Sb 06Sep2000
   VRHFIN =Sb: s2p3

   TITEL  = PAW_PBE Sb 06Sep2000
   POMASS =  121.750; ZVAL   =    5.000    mass and valenz
   ENMAX  =  172.069; ENMIN  =  129.052 eV

  PAW_PBE Li_sv 10Sep2004               :
  PAW_PBE Na_pv 19Sep2006               :
  PAW_PBE Sb 06Sep2000                  :

 POSCAR: Na Sb Li
  positions in direct lattice
  velocities in cartesian coordinates
 exchange correlation table for  LEXCH =        8
   RHO(1)=    0.500       N(1)  =     2000
   RHO(2)=  100.500       N(2)  =     4000

 ion  position               nearest neighbor table
   1  0.750  0.500  0.250-   4 2.96   4 2.96   4 2.96   4 2.96
   2  0.250  0.500  0.750-   4 2.96   4 2.96   4 2.96   4 2.96
   3  0.500  0.000  0.500-
   4  0.000  0.000  0.000-   1 2.96   2 2.96   1 2.96   2 2.96   1 2.96   2 2.96   1 2.96   2 2.96

  LATTYP: Found a face centered cubic cell.
 ALAT       =     6.8376666847

  Lattice vectors:

 A1 = (  -3.4188333423,   0.0000000000,  -3.4188333423)
 A2 = (   0.0000000000,  -3.4188333423,  -3.4188333423)
 A3 = (  -3.4188333423,  -3.4188333423,   0.0000000000)

Analysis of symmetry for initial positions (statically):
 Subroutine PRICEL returns:
 Original cell was already a primitive cell.

 Routine SETGRP: Setting up the symmetry group for a
 face centered cubic supercell.

 Subroutine GETGRP returns: Found 48 space group operations
 (whereof 48 operations were pure point group operations)
 out of a pool of 48 trial point group operations.

The static configuration has the point symmetry O_h .

Analysis of symmetry for dynamics (positions and initial velocities):
 Subroutine PRICEL returns:
 Original cell was already a primitive cell.

 Routine SETGRP: Setting up the symmetry group for a
 face centered cubic supercell.

 Subroutine GETGRP returns: Found 48 space group operations
 (whereof 48 operations were pure point group operations)
 out of a pool of 48 trial point group operations.

The dynamic configuration has the point symmetry O_h .

 Subroutine INISYM returns: Found 48 space group operations
 (whereof 48 operations are pure point group operations),
 and found     1 'primitive' translations

 KPOINTS: KPOINTS

Automatic generation of k-mesh.
Space group operators:
 irot       det(A)        alpha          n_x          n_y          n_z        tau_x        tau_y        tau_z
    1     1.000000     0.000001     1.000000     0.000000     0.000000     0.000000     0.000000     0.000000
    2    -1.000000     0.000001     1.000000     0.000000     0.000000     0.000000     0.000000     0.000000
    3     1.000000   120.000000     0.577350     0.577350     0.577350     0.000000     0.000000     0.000000
    4    -1.000000   120.000000     0.577350     0.577350     0.577350     0.000000     0.000000     0.000000
    5     1.000000   120.000000    -0.577350    -0.577350    -0.577350     0.000000     0.000000     0.000000
    6    -1.000000   120.000000    -0.577350    -0.577350    -0.577350     0.000000     0.000000     0.000000
    7     1.000000    90.000000     0.000000     0.000000     1.000000     0.000000     0.000000     0.000000
    8    -1.000000    90.000000     0.000000     0.000000     1.000000     0.000000     0.000000     0.000000
    9     1.000000   180.000000     0.707107     0.000000     0.707107     0.000000     0.000000     0.000000
   10    -1.000000   180.000000     0.707107     0.000000     0.707107     0.000000     0.000000     0.000000
   11     1.000000    90.000000    -1.000000     0.000000     0.000000     0.000000     0.000000     0.000000
   12    -1.000000    90.000000    -1.000000     0.000000     0.000000     0.000000     0.000000     0.000000
   13     1.000000   180.000000     0.000000     0.000000     1.000000     0.000000     0.000000     0.000000
   14    -1.000000   180.000000     0.000000     0.000000     1.000000     0.000000     0.000000     0.000000
   15     1.000000   120.000000    -0.577350     0.577350    -0.577350     0.000000     0.000000     0.000000
   16    -1.000000   120.000000    -0.577350     0.577350    -0.577350     0.000000     0.000000     0.000000
   17     1.000000   120.000000    -0.577350     0.577350     0.577350     0.000000     0.000000     0.000000
   18    -1.000000   120.000000    -0.577350     0.577350     0.577350     0.000000     0.000000     0.000000
   19     1.000000    90.000000     0.000000     0.000000    -1.000000     0.000000     0.000000     0.000000
   20    -1.000000    90.000000     0.000000     0.000000    -1.000000     0.000000     0.000000     0.000000
   21     1.000000    90.000000     0.000000     1.000000     0.000000     0.000000     0.000000     0.000000
   22    -1.000000    90.000000     0.000000     1.000000     0.000000     0.000000     0.000000     0.000000
   23     1.000000   180.000000     0.000000     0.707107     0.707107     0.000000     0.000000     0.000000
   24    -1.000000   180.000000     0.000000     0.707107     0.707107     0.000000     0.000000     0.000000
   25     1.000000   120.000000     0.577350    -0.577350    -0.577350     0.000000     0.000000     0.000000
   26    -1.000000   120.000000     0.577350    -0.577350    -0.577350     0.000000     0.000000     0.000000
   27     1.000000   120.000000     0.577350     0.577350    -0.577350     0.000000     0.000000     0.000000
   28    -1.000000   120.000000     0.577350     0.577350    -0.577350     0.000000     0.000000     0.000000
   29     1.000000   180.000000     0.000000     1.000000     0.000000     0.000000     0.000000     0.000000
   30    -1.000000   180.000000     0.000000     1.000000     0.000000     0.000000     0.000000     0.000000
   31     1.000000    90.000000     1.000000     0.000000     0.000000     0.000000     0.000000     0.000000
   32    -1.000000    90.000000     1.000000     0.000000     0.000000     0.000000     0.000000     0.000000
   33     1.000000   180.000000     0.707107     0.707107     0.000000     0.000000     0.000000     0.000000
   34    -1.000000   180.000000     0.707107     0.707107     0.000000     0.000000     0.000000     0.000000
   35     1.000000    90.000000     0.000000    -1.000000     0.000000     0.000000     0.000000     0.000000
   36    -1.000000    90.000000     0.000000    -1.000000     0.000000     0.000000     0.000000     0.000000
   37     1.000000   120.000000     0.577350    -0.577350     0.577350     0.000000     0.000000     0.000000
   38    -1.000000   120.000000     0.577350    -0.577350     0.577350     0.000000     0.000000     0.000000
   39     1.000000   180.000000     1.000000     0.000000     0.000000     0.000000     0.000000     0.000000
   40    -1.000000   180.000000     1.000000     0.000000     0.000000     0.000000     0.000000     0.000000
   41     1.000000   120.000000    -0.577350    -0.577350     0.577350     0.000000     0.000000     0.000000
   42    -1.000000   120.000000    -0.577350    -0.577350     0.577350     0.000000     0.000000     0.000000
   43     1.000000   180.000000     0.707107     0.000000    -0.707107     0.000000     0.000000     0.000000
   44    -1.000000   180.000000     0.707107     0.000000    -0.707107     0.000000     0.000000     0.000000
   45     1.000000   180.000000     0.707107    -0.707107     0.000000     0.000000     0.000000     0.000000
   46    -1.000000   180.000000     0.707107    -0.707107     0.000000     0.000000     0.000000     0.000000
   47     1.000000   180.000000     0.000000    -0.707107     0.707107     0.000000     0.000000     0.000000
   48    -1.000000   180.000000     0.000000    -0.707107     0.707107     0.000000     0.000000     0.000000

 Subroutine IBZKPT returns following result:

 Found     29 irreducible k-points:

 Following reciprocal coordinates:
            Coordinates               Weight
  0.000000  0.000000  0.000000      1.000000
  0.125000  0.000000  0.000000      8.000000
  0.250000  0.000000  0.000000      8.000000
  0.375000  0.000000  0.000000      8.000000
  0.500000  0.000000  0.000000      4.000000
  0.000000  0.125000  0.000000      6.000000
  0.125000  0.125000  0.000000     24.000000
  0.250000  0.125000  0.000000     24.000000
  0.375000  0.125000  0.000000     24.000000
  0.500000  0.125000  0.000000     24.000000
 -0.375000  0.125000  0.000000     24.000000
 -0.250000  0.125000  0.000000     12.000000
  0.000000  0.250000  0.000000      6.000000
  0.125000  0.250000  0.000000     24.000000
  0.250000  0.250000  0.000000     24.000000
  0.375000  0.250000  0.000000     24.000000
  0.500000  0.250000  0.000000     12.000000
  0.000000  0.375000  0.000000      6.000000
  0.125000  0.375000  0.000000     24.000000
  0.250000  0.375000  0.000000     12.000000
  0.000000  0.500000  0.000000      3.000000
  0.125000  0.125000  0.125000     24.000000
  0.250000  0.125000  0.125000     48.000000
  0.375000  0.125000  0.125000     24.000000
  0.125000  0.250000  0.125000     24.000000
  0.250000  0.250000  0.125000     48.000000
  0.375000  0.250000  0.125000     24.000000
  0.125000  0.375000  0.125000     12.000000
  0.250000  0.250000  0.250000      6.000000

 Following cartesian coordinates:
            Coordinates               Weight
  0.000000  0.000000  0.000000      1.000000
  0.018281 -0.018281 -0.018281      8.000000
  0.036562 -0.036562 -0.036562      8.000000
  0.054843 -0.054843 -0.054843      8.000000
  0.073124 -0.073124 -0.073124      4.000000
  0.000000  0.000000 -0.036562      6.000000
  0.018281 -0.018281 -0.054843     24.000000
  0.036562 -0.036562 -0.073124     24.000000
  0.054843 -0.054843 -0.091405     24.000000
  0.073124 -0.073124 -0.109687     24.000000
 -0.054843  0.054843  0.018281     24.000000
 -0.036562  0.036562  0.000000     12.000000
  0.000000  0.000000 -0.073124      6.000000
  0.018281 -0.018281 -0.091405     24.000000
  0.036562 -0.036562 -0.109687     24.000000
  0.054843 -0.054843 -0.127968     24.000000
  0.073124 -0.073124 -0.146249     12.000000
  0.000000  0.000000 -0.109687      6.000000
  0.018281 -0.018281 -0.127968     24.000000
  0.036562 -0.036562 -0.146249     12.000000
  0.000000  0.000000 -0.146249      3.000000
  0.036562  0.000000 -0.073124     24.000000
  0.054843 -0.018281 -0.091405     48.000000
  0.073124 -0.036562 -0.109687     24.000000
  0.036562  0.000000 -0.109687     24.000000
  0.054843 -0.018281 -0.127968     48.000000
  0.073124 -0.036562 -0.146249     24.000000
  0.036562  0.000000 -0.146249     12.000000
  0.073124  0.000000 -0.146249      6.000000

 SYSTEM =  unknown system
 POSCAR =  Na Sb Li

[...]
   LCHARG       =      F    write CHGCAR
   LVTOT        =      F    write LOCPOT, total local potential
   LVHAR        =      F    write LOCPOT, Hartree potential only
   LELF         =      F    write electronic localiz. function (ELF)
   LORBIT       =      0    0 simple, 1 ext, 2 COOP (PROOUT), +10 PAW based schemes

 Dipole corrections
   LMONO  =      F    monopole corrections only (constant potential shift)
   LDIPOL =      F    correct potential (dipole corrections)
   IDIPOL =      0    1-x, 2-y, 3-z, 4-all directions
   EPSILON=  1.0000000 bulk dielectric constant

 Exchange correlation treatment:
   GGA     =    PE    GGA type
   VOSKOWN=      0    Vosko Wilk Nusair interpolation
   LHFCALC =     F    Hartree Fock is set to
   LHFONE  =     F    Hartree Fock one center treatment
   AEXX    =    0.0000 exact exchange contribution

 Linear response parameters
   LEPSILON=     F    determine dielectric tensor
   LRPA    =     F    only Hartree local field effects (RPA)
   LNABLA  =     F    use nabla operator in PAW spheres
   LVEL    =     F    velocity operator in full k-point grid
   LINTERFAST=   F  fast interpolation
   KINTER  =     0    interpolate to denser k-point grid
   CSHIFT  =0.1000    complex shift for real part using Kramers Kronig
   OMEGAMAX=  -1.0    maximum frequency
   DEG_THRESHOLD= 0.2000000E-02 threshold for treating states as degnerate
   RTIME   =   -0.100 relaxation time in fs
  (WPLASMAI=    0.000 imaginary part of plasma frequency in eV, 0.658/RTIME)
   DFIELD  = 0.0000000 0.0000000 0.0000000 field for delta impulse in time

 Orbital magnetization related:
   ORBITALMAG=     F  switch on orbital magnetization
   LCHIMAG   =     F  perturbation theory with respect to B field
   DQ        =  0.001000  dq finite difference perturbation B field
   LLRAUG    =     F  two centre corrections for induced B field

 Static calculation
 charge density and potential will be updated during run
 non-spin polarized calculation
 Variant of blocked Davidson
 Davidson routine will perform the subspace rotation
 perform sub-space diagonalisation
    after iterative eigenvector-optimisation
 modified Broyden-mixing scheme, WC =      100.0
 initial mixing is a Kerker type mixing with AMIX =  0.4000 and BMIX =      1.0000
 Hartree-type preconditioning will be used
 using additional bands            4
 reciprocal scheme for non local part
 use partial core corrections
 calculate Harris-corrections to forces
   (improved forces if not selfconsistent)
 use gradient corrections
 use of overlap-Matrix (Vanderbilt PP)
 Gauss-broadening in eV      SIGMA  =   0.05

  energy-cutoff  :      520.00
  volume of cell :       79.92
      direct lattice vectors                 reciprocal lattice vectors
     3.418833342 -3.418833342  0.000000000     0.146248720 -0.146248720 -0.146248720
    -3.418833342  0.000000000 -3.418833342     0.000000000  0.000000000 -0.292497440
     3.418833342  3.418833342  0.000000000     0.146248720  0.146248720 -0.146248720

  length of vectors
     4.834960480  4.834960480  4.834960480     0.253310213  0.292497440  0.253310213

 k-points in units of 2pi/SCALE and weight: KPOINTS
   0.00000000  0.00000000  0.00000000       0.002
   0.01828109 -0.01828109 -0.01828109       0.016
   0.03656218 -0.03656218 -0.03656218       0.016
   0.05484327 -0.05484327 -0.05484327       0.016
   0.07312436 -0.07312436 -0.07312436       0.008
   0.00000000  0.00000000 -0.03656218       0.012
   0.01828109 -0.01828109 -0.05484327       0.047
   0.03656218 -0.03656218 -0.07312436       0.047
   0.05484327 -0.05484327 -0.09140545       0.047
   0.07312436 -0.07312436 -0.10968654       0.047
  -0.05484327  0.05484327  0.01828109       0.047
  -0.03656218  0.03656218  0.00000000       0.023
   0.00000000  0.00000000 -0.07312436       0.012
   0.01828109 -0.01828109 -0.09140545       0.047
   0.03656218 -0.03656218 -0.10968654       0.047
   0.05484327 -0.05484327 -0.12796763       0.047
   0.07312436 -0.07312436 -0.14624872       0.023
   0.00000000  0.00000000 -0.10968654       0.012
   0.01828109 -0.01828109 -0.12796763       0.047
   0.03656218 -0.03656218 -0.14624872       0.023
   0.00000000  0.00000000 -0.14624872       0.006
   0.03656218  0.00000000 -0.07312436       0.047
   0.05484327 -0.01828109 -0.09140545       0.094
   0.07312436 -0.03656218 -0.10968654       0.047
   0.03656218  0.00000000 -0.10968654       0.047
   0.05484327 -0.01828109 -0.12796763       0.094
   0.07312436 -0.03656218 -0.14624872       0.047
   0.03656218  0.00000000 -0.14624872       0.023
   0.07312436  0.00000000 -0.14624872       0.012

 k-points in reciprocal lattice and weights: KPOINTS
   0.00000000  0.00000000  0.00000000       0.002
   0.12500000  0.00000000  0.00000000       0.016
   0.25000000  0.00000000  0.00000000       0.016
   0.37500000  0.00000000  0.00000000       0.016
   0.50000000  0.00000000  0.00000000       0.008
   0.00000000  0.12500000  0.00000000       0.012
   0.12500000  0.12500000  0.00000000       0.047
   0.25000000  0.12500000  0.00000000       0.047
   0.37500000  0.12500000  0.00000000       0.047
   0.50000000  0.12500000  0.00000000       0.047
  -0.37500000  0.12500000  0.00000000       0.047
  -0.25000000  0.12500000  0.00000000       0.023
   0.00000000  0.25000000  0.00000000       0.012
   0.12500000  0.25000000  0.00000000       0.047
   0.25000000  0.25000000  0.00000000       0.047
   0.37500000  0.25000000  0.00000000       0.047
   0.50000000  0.25000000  0.00000000       0.023
   0.00000000  0.37500000  0.00000000       0.012
   0.12500000  0.37500000  0.00000000       0.047
   0.25000000  0.37500000  0.00000000       0.023
   0.00000000  0.50000000  0.00000000       0.006
   0.12500000  0.12500000  0.12500000       0.047
   0.25000000  0.12500000  0.12500000       0.094
   0.37500000  0.12500000  0.12500000       0.047
   0.12500000  0.25000000  0.12500000       0.047
   0.25000000  0.25000000  0.12500000       0.094
   0.37500000  0.25000000  0.12500000       0.047
   0.12500000  0.37500000  0.12500000       0.023
   0.25000000  0.25000000  0.25000000       0.012

 position of ions in fractional coordinates (direct lattice)
   0.74999822  0.49999882  0.24999941
   0.24999941  0.49999882  0.74999822
   0.50000030  0.00000000  0.50000030
   0.00000000  0.00000000  0.00000000

 position of ions in cartesian coordinates  (Angst):
   1.70941262 -1.70941262 -1.70941262
   1.70941262  1.70941262 -1.70941262
   3.41883537  0.00000000  0.00000000
   0.00000000  0.00000000  0.00000000

 k-point  1 :   0.0000 0.0000 0.0000  plane waves:    2109
 k-point  2 :   0.1250 0.0000 0.0000  plane waves:    2133
 k-point  3 :   0.2500 0.0000 0.0000  plane waves:    2142
 k-point  4 :   0.3750 0.0000 0.0000  plane waves:    2147
 k-point  5 :   0.5000 0.0000 0.0000  plane waves:    2138
 k-point  6 :   0.0000 0.1250 0.0000  plane waves:    2137
 k-point  7 :   0.1250 0.1250 0.0000  plane waves:    2143
 k-point  8 :   0.2500 0.1250 0.0000  plane waves:    2150
 k-point  9 :   0.3750 0.1250 0.0000  plane waves:    2150
 k-point 10 :   0.5000 0.1250 0.0000  plane waves:    2149
 k-point 11 :  -0.3750 0.1250 0.0000  plane waves:    2147
 k-point 12 :  -0.2500 0.1250 0.0000  plane waves:    2131
 k-point 13 :   0.0000 0.2500 0.0000  plane waves:    2141
 k-point 14 :   0.1250 0.2500 0.0000  plane waves:    2143
 k-point 15 :   0.2500 0.2500 0.0000  plane waves:    2152
 k-point 16 :   0.3750 0.2500 0.0000  plane waves:    2161
 k-point 17 :   0.5000 0.2500 0.0000  plane waves:    2151
 k-point 18 :   0.0000 0.3750 0.0000  plane waves:    2152
 k-point 19 :   0.1250 0.3750 0.0000  plane waves:    2156
 k-point 20 :   0.2500 0.3750 0.0000  plane waves:    2149
 k-point 21 :   0.0000 0.5000 0.0000  plane waves:    2164
 k-point 22 :   0.1250 0.1250 0.1250  plane waves:    2151
 k-point 23 :   0.2500 0.1250 0.1250  plane waves:    2154
 k-point 24 :   0.3750 0.1250 0.1250  plane waves:    2162
 k-point 25 :   0.1250 0.2500 0.1250  plane waves:    2170
 k-point 26 :   0.2500 0.2500 0.1250  plane waves:    2164
 k-point 27 :   0.3750 0.2500 0.1250  plane waves:    2160
 k-point 28 :   0.1250 0.3750 0.1250  plane waves:    2166
 k-point 29 :   0.2500 0.2500 0.2500  plane waves:    2180

 maximum and minimum number of plane-waves per node :       319      294

 maximum number of plane-waves:      2180
 maximum index in each direction:
   IXMAX=    9   IYMAX=    8   IZMAX=    8
   IXMIN=   -9   IYMIN=   -9   IZMIN=   -9

 parallel 3D FFT for wavefunctions:
    minimum data exchange during FFTs selected (reduces bandwidth)
 parallel 3D FFT for charge:
    minimum data exchange during FFTs selected (reduces bandwidth)

 Broyden mixing: mesh for mixing (old mesh)
   NGX = 17   NGY = 17   NGZ = 17
  (NGX  = 72   NGY  = 72   NGZ  = 72)
  gives a total of   4913 points

 initial charge density was supplied:
 charge density of overlapping atoms calculated
 number of electron      18.0000000 magnetization
 keeping initial charge density in first step

 Maximum index for augmentation-charges         5241 (set IRDMAX)

 First call to EWALD:  gamma=   0.411
 Maximum number of real-space cells 3x 3x 3
 Maximum number of reciprocal cells 3x 3x 3

--------------------------------------- Iteration      1(   1)  ---------------------------------------

 eigenvalue-minimisations  :   754
 total energy-change (2. order) : 0.9243229E+02  (-0.8807466E+03)
 number of electron      18.0000000 magnetization
 augmentation part       18.0000000 magnetization

 Free energy of the ion-electron system (eV)
  alpha Z        PSCENC =        10.58173741
  Ewald energy   TEWEN  =      -666.72558547
  -Hartree energ DENC   =      -326.63675893
  -exchange      EXHF   =         0.00000000
  -V(xc)+E(xc)   XCENC  =         3.44421819
  PAW double counting   =       825.55058042     -890.97831796
  entropy T*S    EENTRO =        -0.00117250
  eigenvalues    EBANDS =      -184.34113872
  atomic energy  EATOM  =      1321.53873213
  Solvation  Ediel_sol  =         0.00000000
  free energy    TOTEN  =        92.43229456 eV

  energy without entropy =       92.43346706  energy(sigma->0) =       92.43288081

[...]

 eigenvalue-minimisations  :   814
 total energy-change (2. order) :-0.9340492E+02  (-0.9108655E+02)
 number of electron      18.0000000 magnetization
 augmentation part       18.0000000 magnetization

[...]

 Broyden mixing:
  rms(total) = 0.29709E+00    rms(broyden)= 0.29667E+00
  rms(prec ) = 0.62302E+00
  weight for this iteration     100.00

[...]

 eigenvalues of (default mixing * dielectric matrix)
  average eigenvalue GAMMA=   2.3027
  2.3027

[...]

 eigenvalue-minimisations  :   457
 total energy-change (2. order) : 0.5606171E-07  (-0.1727455E-10)
 number of electron      17.9999979 magnetization
 augmentation part        5.6272718 magnetization

 Broyden mixing:
  rms(total) = 0.13786E-05    rms(broyden)= 0.13786E-05
  rms(prec ) = 0.19466E-05
  weight for this iteration     100.00

 eigenvalues of (default mixing * dielectric matrix)
  average eigenvalue GAMMA=   1.7663
  2.9115  2.6786  2.6786  2.6235  1.5958  1.5958  1.2406  1.1973  1.0033  1.0033
  0.9005

[...]

--------------------------------------- Iteration      1(  17)  ---------------------------------------

 eigenvalue-minimisations  :   432
 total energy-change (2. order) :-0.5391939E-08  (-0.8833259E-11)
 number of electron      17.9999979 magnetization
 augmentation part        5.6272718 magnetization

 Free energy of the ion-electron system (eV)
  alpha Z        PSCENC =        10.58173741
  Ewald energy   TEWEN  =      -666.72558547
  -Hartree energ DENC   =      -318.36679378
  -exchange      EXHF   =         0.00000000
  -V(xc)+E(xc)   XCENC  =         3.60658221
  PAW double counting   =      1017.84472340    -1084.17175285
  entropy T*S    EENTRO =        -0.00000000
  eigenvalues    EBANDS =      -295.89879769
  atomic energy  EATOM  =      1321.53873213
  Solvation  Ediel_sol  =         0.00000000
  free energy    TOTEN  =       -11.59115463 eV

  energy without entropy =      -11.59115463  energy(sigma->0) =      -11.59115463

 average (electrostatic) potential at core
  the test charge radii are     0.7079  0.9254  1.1712
  (the norm of the test charge is              1.0000)
       1 -61.9486       2 -61.9486       3 -46.6349       4 -87.9827

 E-fermi :   3.8569     XC(G=0):  -8.5620     alpha+bet :-10.4052

 k-point     1 :       0.0000    0.0000    0.0000
  band No.  band energies     occupation
      1     -42.8653      2.00000
      2     -42.8602      2.00000
      3     -20.8363      2.00000
      4     -20.8363      2.00000
      5     -20.8363      2.00000
      6      -5.4219      2.00000
      7       3.5362      2.00000
      8       3.5362      2.00000
      9       3.5362      2.00000
     10       5.1585      0.00000
     11       6.1849      0.00000
     12       6.1849      0.00000
     13       6.1849      0.00000

[...]

 k-point    29 :       0.2500    0.2500    0.2500
  band No.  band energies     occupation
      1     -42.8628      2.00000
      2     -42.8628      2.00000
      3     -20.8379      2.00000
      4     -20.8379      2.00000
      5     -20.8374      2.00000
      6      -4.6243      2.00000
      7       1.0921      2.00000
      8       1.0921      2.00000
      9       1.2343      2.00000
     10       6.6531      0.00000
     11       6.9390      0.00000
     12       7.9637      0.00000
     13       7.9637      0.00000

 soft charge-density along one line, spin component           1
         0         1         2         3         4         5         6         7         8         9
 total charge-density along one line

------------------------ aborting loop because EDIFF is reached ----------------------------------------

  FORCE on cell =-STRESS in cart. coord.  units (eV):
  Direction    XX          YY          ZZ          XY          YZ          ZX
  Alpha Z    10.58174    10.58174    10.58174
  Ewald    -222.24204  -222.24204  -222.24204     0.00000     0.00000     0.00015
  Hartree   106.12226   106.12226   106.12226    -0.00000     0.00000     0.00006
  E(xc)     -85.34085   -85.34087   -85.34097    -0.00000     0.00000     0.00006
  Local     -61.62848   -61.62832   -61.62809    -0.00000    -0.00000    -0.00043
  n-local    28.57403    29.09656    28.83517     1.86558    -0.83565     1.40102
  augment    61.32241    61.32225    61.32204    -0.00000     0.00000     0.00016
  Kinetic   163.03766   163.74797   160.30661     2.78870    -1.23363     1.55417
  Fock        0.00000     0.00000     0.00000     0.00000     0.00000     0.00000
  Total       0.01434     0.01434     0.01434    -0.00000    -0.00000     0.00000
  in kB       0.28739     0.28739     0.28739    -0.00000    -0.00000     0.00000

 VOLUME and BASIS-vectors are now :
  energy-cutoff  :      520.00
  volume of cell :       79.92
      direct lattice vectors                 reciprocal lattice vectors
     3.418833342 -3.418833342  0.000000000     0.146248720 -0.146248720 -0.146248720
    -3.418833342  0.000000000 -3.418833342     0.000000000  0.000000000 -0.292497440
     3.418833342  3.418833342  0.000000000     0.146248720  0.146248720 -0.146248720

  length of vectors
     4.834960480  4.834960480  4.834960480     0.253310213  0.292497440  0.253310213

 FORCES acting on ions
    electron-ion (+dipol)            ewald-force                    non-local-force                 convergence-correction
   0.167E-02 -.168E-02 -.169E-02   0.142E-03 -.165E-03 -.110E-03   0.190E-18 -.133E-17 0.000E+00   -.715E-09 0.555E-08 0.533E-09
   0.167E-02 0.168E-02 -.169E-02   0.142E-03 0.165E-03 -.110E-03   -.114E-17 0.379E-18 0.651E-18   -.715E-09 -.555E-08 0.533E-09
   -.364E-03 0.117E-11 -.411E-04   -.246E-03 -.864E-14 0.128E-03   0.000E+00 0.000E+00 0.000E+00   0.704E-08 -.120E-13 -.191E-08
   -.482E-05 0.573E-11 -.293E-04   -.382E-04 -.290E-15 0.917E-04   -.318E-21 0.000E+00 0.000E+00   -.831E-09 0.191E-14 -.389E-09
   0.298E-02 -.826E-10 -.346E-02   -.835E-16 0.407E-15 -.531E-15   -.949E-18 -.949E-18 0.651E-18   0.477E-08 -.103E-13 -.124E-08

 POSITION                                       TOTAL-FORCE (eV/Angst)
      1.70941     -1.70941     -1.70941        -0.000000     -0.000000      0.000000
      1.70941      1.70941     -1.70941         0.000000      0.000000      0.000000
      3.41884      0.00000      0.00000        -0.000000      0.000000      0.000000
      0.00000      0.00000      0.00000        -0.000000     -0.000000      0.000000
    total drift:                                0.002977     -0.000000     -0.003457

  FREE ENERGIE OF THE ION-ELECTRON SYSTEM (eV)
  free  energy   TOTEN  =       -11.59115463 eV

  energy  without entropy=      -11.59115463  energy(sigma->0) =      -11.59115463