 vasp.5.4.4.18Apr17-6-g9f103f2a35 (build Jun 23 2019 17:35:09) complex

 executed on             LinuxIFC date 2020.01.15  15:39:43

 INCAR:
 POTCAR:    PAW_PBE Cs_sv 08Apr2002
 POTCAR:    PAW_PBE Rb_sv 06Sep2000
 POTCAR:    PAW_PBE Sb 06Sep2000

 POTCAR:    PAW_PBE Cs_sv 08Apr2002
   VRHFIN =Cs: 5s5p6s

   TITEL  = PAW_PBE Cs_sv 08Apr2002
   POMASS =  132.900; ZVAL   =    9.000    mass and valenz
   ENMAX  =  220.318; ENMIN  =  165.238 eV

 POTCAR:    PAW_PBE Rb_sv 06Sep2000
   VRHFIN =Rb: 4s4p5s

   TITEL  = PAW_PBE Rb_sv 06Sep2000
   POMASS =   85.468; ZVAL   =    9.000    mass and valenz
   ENMAX  =  220.112; ENMIN  =  165.084 eV

 POTCAR:    PAW_PBE Sb 06Sep2000
   VRHFIN =Sb: s2p3

   TITEL  = PAW_PBE Sb 06Sep2000
   POMASS =  121.750; ZVAL   =    5.000    mass and valenz
   ENMAX  =  172.069; ENMIN  =  129.052 eV

  PAW_PBE Cs_sv 08Apr2002               :
  PAW_PBE Rb_sv 06Sep2000               :
  PAW_PBE Sb 06Sep2000                  :

 POSCAR: Cs Sb Rb
  positions in direct lattice
  velocities in cartesian coordinates
 exchange correlation table for  LEXCH =        8
   RHO(1)=    0.500       N(1)  =     2000
   RHO(2)=  100.500       N(2)  =     4000

 ion  position               nearest neighbor table
   1  0.250  0.250  0.250-   2 3.92   3 3.92   3 3.92   3 3.92   2 3.92   2 3.92   2 3.92   3 3.92

   2  0.000  0.000  0.000-   1 3.92   4 3.92   4 3.92   4 3.92   4 3.92   1 3.92   1 3.92   1 3.92
                             3 4.53   3 4.53   3 4.53   3 4.53   3 4.53   3 4.53
   3  0.500  0.500  0.500-   4 3.92   4 3.92   4 3.92   1 3.92   1 3.92   1 3.92   1 3.92   4 3.92
                             2 4.53   2 4.53   2 4.53   2 4.53   2 4.53   2 4.53
   4  0.750  0.750  0.750-   2 3.92   3 3.92   3 3.92   3 3.92   2 3.92   2 3.92   2 3.92   3 3.92

  LATTYP: Found a face centered cubic cell.
 ALAT       =     9.0538791497

  Lattice vectors:

 A1 = (   0.0000000000,   4.5269395748,   4.5269395748)
 A2 = (   4.5269395748,   0.0000000000,   4.5269395748)
 A3 = (   4.5269395748,   4.5269395748,   0.0000000000)

Analysis of symmetry for initial positions (statically):
 Subroutine PRICEL returns:
 Original cell was already a primitive cell.

 Routine SETGRP: Setting up the symmetry group for a
 face centered cubic supercell.

 Subroutine GETGRP returns: Found 48 space group operations
 (whereof 24 operations were pure point group operations)
 out of a pool of 48 trial point group operations.

The static configuration has the point symmetry T_d .
 The point group associated with its full space group is O_h .

Analysis of symmetry for dynamics (positions and initial velocities):
 Subroutine PRICEL returns:
 Original cell was already a primitive cell.

 Routine SETGRP: Setting up the symmetry group for a
 face centered cubic supercell.

 Subroutine GETGRP returns: Found 48 space group operations
 (whereof 24 operations were pure point group operations)
 out of a pool of 48 trial point group operations.

The dynamic configuration has the point symmetry T_d .
 The point group associated with its full space group is O_h .

 Subroutine INISYM returns: Found 48 space group operations
 (whereof 24 operations are pure point group operations),
 and found     1 'primitive' translations

 KPOINTS: KPOINTS

Automatic generation of k-mesh.
Space group operators:
 irot       det(A)        alpha          n_x          n_y          n_z        tau_x        tau_y        tau_z
    1     1.000000     0.000001     1.000000     0.000000     0.000000     0.000000     0.000000     0.000000
    2     1.000000   120.000000    -0.577350    -0.577350    -0.577350     0.000000     0.000000     0.000000
    3     1.000000   120.000000     0.577350     0.577350     0.577350     0.000000     0.000000     0.000000
    4    -1.000000    90.000000     0.000000     0.000000    -1.000000     0.000000     0.000000     0.000000
    5    -1.000000   180.000000     0.000000     0.707107     0.707107     0.000000     0.000000     0.000000
    6    -1.000000    90.000000     0.000000     1.000000     0.000000     0.000000     0.000000     0.000000
    7     1.000000   180.000000     0.000000     0.000000     1.000000     0.000000     0.000000     0.000000
    8     1.000000   120.000000    -0.577350     0.577350     0.577350     0.000000     0.000000     0.000000
    9     1.000000   120.000000    -0.577350     0.577350    -0.577350     0.000000     0.000000     0.000000
   10    -1.000000    90.000000     0.000000     0.000000     1.000000     0.000000     0.000000     0.000000
   11    -1.000000    90.000000    -1.000000     0.000000     0.000000     0.000000     0.000000     0.000000
   12    -1.000000   180.000000     0.707107     0.000000     0.707107     0.000000     0.000000     0.000000
   13     1.000000   120.000000     0.577350    -0.577350     0.577350     0.000000     0.000000     0.000000
   14     1.000000   120.000000    -0.577350    -0.577350     0.577350     0.000000     0.000000     0.000000
   15     1.000000   180.000000     1.000000     0.000000     0.000000     0.000000     0.000000     0.000000
   16    -1.000000    90.000000     0.000000    -1.000000     0.000000     0.000000     0.000000     0.000000
   17    -1.000000   180.000000     0.707107     0.707107     0.000000     0.000000     0.000000     0.000000
   18    -1.000000    90.000000     1.000000     0.000000     0.000000     0.000000     0.000000     0.000000
   19     1.000000   120.000000     0.577350    -0.577350    -0.577350     0.000000     0.000000     0.000000
   20     1.000000   180.000000     0.000000     1.000000     0.000000     0.000000     0.000000     0.000000
   21     1.000000   120.000000     0.577350     0.577350    -0.577350     0.000000     0.000000     0.000000
   22    -1.000000   180.000000     0.000000    -0.707107     0.707107     0.000000     0.000000     0.000000
   23    -1.000000   180.000000     0.707107    -0.707107     0.000000     0.000000     0.000000     0.000000
   24    -1.000000   180.000000     0.707107     0.000000    -0.707107     0.000000     0.000000     0.000000
   25    -1.000000     0.000001     1.000000     0.000000     0.000000     0.499999     0.499999     0.499999
   26    -1.000000   120.000000    -0.577350    -0.577350    -0.577350     0.499999     0.499999     0.499999
   27    -1.000000   120.000000     0.577350     0.577350     0.577350     0.499999     0.499999     0.499999
   28     1.000000    90.000000     0.000000     0.000000    -1.000000     0.500001     0.499999     0.499999
   29     1.000000   180.000000     0.000000     0.707107     0.707107     0.500001     0.499999     0.499999
   30     1.000000    90.000000     0.000000     1.000000     0.000000     0.500001     0.499999     0.499999
   31    -1.000000   180.000000     0.000000     0.000000     1.000000     0.499999     0.499999     0.500001
   32    -1.000000   120.000000    -0.577350     0.577350     0.577350     0.499999     0.499999     0.500001
   33    -1.000000   120.000000    -0.577350     0.577350    -0.577350     0.499999     0.499999     0.500001
   34     1.000000    90.000000     0.000000     0.000000     1.000000     0.499999     0.500001     0.499999
   35     1.000000    90.000000    -1.000000     0.000000     0.000000     0.499999     0.500001     0.499999
   36     1.000000   180.000000     0.707107     0.000000     0.707107     0.499999     0.500001     0.499999
   37    -1.000000   120.000000     0.577350    -0.577350     0.577350     0.500001     0.499999     0.499999
   38    -1.000000   120.000000    -0.577350    -0.577350     0.577350     0.500001     0.499999     0.499999
   39    -1.000000   180.000000     1.000000     0.000000     0.000000     0.500001     0.499999     0.499999
   40     1.000000    90.000000     0.000000    -1.000000     0.000000     0.499999     0.499999     0.500001
   41     1.000000   180.000000     0.707107     0.707107     0.000000     0.499999     0.499999     0.500001
   42     1.000000    90.000000     1.000000     0.000000     0.000000     0.499999     0.499999     0.500001
   43    -1.000000   120.000000     0.577350    -0.577350    -0.577350     0.499999     0.500001     0.499999
   44    -1.000000   180.000000     0.000000     1.000000     0.000000     0.499999     0.500001     0.499999
   45    -1.000000   120.000000     0.577350     0.577350    -0.577350     0.499999     0.500001     0.499999
   46     1.000000   180.000000     0.000000    -0.707107     0.707107     0.499999     0.499999     0.499999
   47     1.000000   180.000000     0.707107    -0.707107     0.000000     0.499999     0.499999     0.499999
   48     1.000000   180.000000     0.707107     0.000000    -0.707107     0.499999     0.499999     0.499999

 Subroutine IBZKPT returns following result:

 Found     29 irreducible k-points:

 Following reciprocal coordinates:
            Coordinates               Weight
  0.000000  0.000000  0.000000      1.000000
  0.125000  0.000000  0.000000      8.000000
  0.250000  0.000000  0.000000      8.000000
  0.375000  0.000000  0.000000      8.000000
  0.500000  0.000000  0.000000      4.000000
  0.125000  0.125000  0.000000      6.000000
  0.250000  0.125000  0.000000     24.000000
  0.375000  0.125000  0.000000     24.000000
  0.500000  0.125000  0.000000     24.000000
 -0.375000  0.125000  0.000000     24.000000
 -0.250000  0.125000  0.000000     24.000000
 -0.125000  0.125000  0.000000     12.000000
  0.250000  0.250000  0.000000      6.000000
  0.375000  0.250000  0.000000     24.000000
  0.500000  0.250000  0.000000     24.000000
 -0.375000  0.250000  0.000000     24.000000
 -0.250000  0.250000  0.000000     12.000000
  0.375000  0.375000  0.000000      6.000000
  0.500000  0.375000  0.000000     24.000000
 -0.375000  0.375000  0.000000     12.000000
  0.500000  0.500000  0.000000      3.000000
  0.375000  0.250000  0.125000     24.000000
  0.500000  0.250000  0.125000     48.000000
 -0.375000  0.250000  0.125000     24.000000
  0.500000  0.375000  0.125000     24.000000
 -0.375000  0.375000  0.125000     48.000000
 -0.250000  0.375000  0.125000     24.000000
 -0.375000  0.500000  0.125000     12.000000
 -0.250000  0.500000  0.250000      6.000000

 Following cartesian coordinates:
            Coordinates               Weight
  0.000000  0.000000  0.000000      1.000000
 -0.013806  0.013806  0.013806      8.000000
 -0.027612  0.027612  0.027612      8.000000
 -0.041419  0.041419  0.041419      8.000000
 -0.055225  0.055225  0.055225      4.000000
  0.000000  0.000000  0.027612      6.000000
 -0.013806  0.013806  0.041419     24.000000
 -0.027612  0.027612  0.055225     24.000000
 -0.041419  0.041419  0.069031     24.000000
  0.055225 -0.055225 -0.027612     24.000000
  0.041419 -0.041419 -0.013806     24.000000
  0.027612 -0.027612  0.000000     12.000000
  0.000000  0.000000  0.055225      6.000000
 -0.013806  0.013806  0.069031     24.000000
 -0.027612  0.027612  0.082837     24.000000
  0.069031 -0.069031 -0.013806     24.000000
  0.055225 -0.055225  0.000000     12.000000
  0.000000  0.000000  0.082837      6.000000
 -0.013806  0.013806  0.096644     24.000000
  0.082837 -0.082837  0.000000     12.000000
[...]
   EPSILON=  1.0000000 bulk dielectric constant

 Exchange correlation treatment:
   GGA     =    PE    GGA type
   VOSKOWN=      0    Vosko Wilk Nusair interpolation
   LHFCALC =     F    Hartree Fock is set to
   LHFONE  =     F    Hartree Fock one center treatment
   AEXX    =    0.0000 exact exchange contribution

 Linear response parameters
   LEPSILON=     F    determine dielectric tensor
   LRPA    =     F    only Hartree local field effects (RPA)
   LNABLA  =     F    use nabla operator in PAW spheres
   LVEL    =     F    velocity operator in full k-point grid
   LINTERFAST=   F  fast interpolation
   KINTER  =     0    interpolate to denser k-point grid
   CSHIFT  =0.1000    complex shift for real part using Kramers Kronig
   OMEGAMAX=  -1.0    maximum frequency
   DEG_THRESHOLD= 0.2000000E-02 threshold for treating states as degnerate
   RTIME   =   -0.100 relaxation time in fs
  (WPLASMAI=    0.000 imaginary part of plasma frequency in eV, 0.658/RTIME)
   DFIELD  = 0.0000000 0.0000000 0.0000000 field for delta impulse in time

 Orbital magnetization related:
   ORBITALMAG=     F  switch on orbital magnetization
   LCHIMAG   =     F  perturbation theory with respect to B field
   DQ        =  0.001000  dq finite difference perturbation B field
   LLRAUG    =     F  two centre corrections for induced B field

 Static calculation
 charge density and potential will be updated during run
 non-spin polarized calculation
 Variant of blocked Davidson
 Davidson routine will perform the subspace rotation
 perform sub-space diagonalisation
    after iterative eigenvector-optimisation
 modified Broyden-mixing scheme, WC =      100.0
 initial mixing is a Kerker type mixing with AMIX =  0.4000 and BMIX =      1.0000
 Hartree-type preconditioning will be used
 using additional bands            4
 reciprocal scheme for non local part
 use partial core corrections
 calculate Harris-corrections to forces
   (improved forces if not selfconsistent)
 use gradient corrections
 use of overlap-Matrix (Vanderbilt PP)
 Gauss-broadening in eV      SIGMA  =   0.05

  energy-cutoff  :      520.00
  volume of cell :      185.54
      direct lattice vectors                 reciprocal lattice vectors
     0.000000000  4.526939575  4.526939575    -0.110449895  0.110449895  0.110449895
     4.526939575  0.000000000  4.526939575     0.110449895 -0.110449895  0.110449895
     4.526939575  4.526939575  0.000000000     0.110449895  0.110449895 -0.110449895

  length of vectors
     6.402059343  6.402059343  6.402059343     0.191304830  0.191304830  0.191304830

 k-points in units of 2pi/SCALE and weight: KPOINTS
   0.00000000  0.00000000  0.00000000       0.002
  -0.01380624  0.01380624  0.01380624       0.016
  -0.02761247  0.02761247  0.02761247       0.016
  -0.04141871  0.04141871  0.04141871       0.016
  -0.05522495  0.05522495  0.05522495       0.008
   0.00000000  0.00000000  0.02761247       0.012
  -0.01380624  0.01380624  0.04141871       0.047
  -0.02761247  0.02761247  0.05522495       0.047
  -0.04141871  0.04141871  0.06903118       0.047
   0.05522495 -0.05522495 -0.02761247       0.047
   0.04141871 -0.04141871 -0.01380624       0.047
   0.02761247 -0.02761247  0.00000000       0.023
   0.00000000  0.00000000  0.05522495       0.012
  -0.01380624  0.01380624  0.06903118       0.047
  -0.02761247  0.02761247  0.08283742       0.047
   0.06903118 -0.06903118 -0.01380624       0.047
   0.05522495 -0.05522495  0.00000000       0.023
   0.00000000  0.00000000  0.08283742       0.012
  -0.01380624  0.01380624  0.09664366       0.047
   0.08283742 -0.08283742  0.00000000       0.023
   0.00000000  0.00000000  0.11044989       0.006
   0.00000000  0.02761247  0.05522495       0.047
  -0.01380624  0.04141871  0.06903118       0.094
   0.08283742 -0.05522495 -0.02761247       0.047
  -0.00000000  0.02761247  0.08283742       0.047
   0.09664366 -0.06903118 -0.01380624       0.094
   0.08283742 -0.05522495 -0.00000000       0.047
   0.11044989 -0.08283742  0.00000000       0.023
   0.11044989 -0.05522495  0.00000000       0.012

 k-points in reciprocal lattice and weights: KPOINTS
   0.00000000  0.00000000  0.00000000       0.002
   0.12500000  0.00000000  0.00000000       0.016
   0.25000000  0.00000000  0.00000000       0.016
   0.37500000  0.00000000  0.00000000       0.016
   0.50000000  0.00000000  0.00000000       0.008
   0.12500000  0.12500000  0.00000000       0.012
   0.25000000  0.12500000  0.00000000       0.047
   0.37500000  0.12500000  0.00000000       0.047
   0.50000000  0.12500000  0.00000000       0.047
  -0.37500000  0.12500000  0.00000000       0.047
  -0.25000000  0.12500000  0.00000000       0.047
  -0.12500000  0.12500000  0.00000000       0.023
   0.25000000  0.25000000  0.00000000       0.012
   0.37500000  0.25000000  0.00000000       0.047
   0.50000000  0.25000000  0.00000000       0.047
  -0.37500000  0.25000000  0.00000000       0.047
  -0.25000000  0.25000000  0.00000000       0.023
   0.37500000  0.37500000  0.00000000       0.012
   0.50000000  0.37500000  0.00000000       0.047
  -0.37500000  0.37500000  0.00000000       0.023
   0.50000000  0.50000000  0.00000000       0.006
   0.37500000  0.25000000  0.12500000       0.047
   0.50000000  0.25000000  0.12500000       0.094
  -0.37500000  0.25000000  0.12500000       0.047
   0.50000000  0.37500000  0.12500000       0.047
  -0.37500000  0.37500000  0.12500000       0.094
  -0.25000000  0.37500000  0.12500000       0.047
  -0.37500000  0.50000000  0.12500000       0.023
  -0.25000000  0.50000000  0.25000000       0.012

 position of ions in fractional coordinates (direct lattice)
   0.24999934  0.24999934  0.24999934
   0.00000000  0.00000000  0.00000000
   0.49999978  0.49999978  0.49999978
   0.75000022  0.75000022  0.75000022

 position of ions in cartesian coordinates  (Angst):
   2.26346377  2.26346377  2.26346377
   0.00000000  0.00000000  0.00000000
   4.52693757  4.52693757  4.52693757
   6.79041137  6.79041137  6.79041137

 k-point  1 :   0.0000 0.0000 0.0000  plane waves:    5029
 k-point  2 :   0.1250 0.0000 0.0000  plane waves:    4987
 k-point  3 :   0.2500 0.0000 0.0000  plane waves:    4975
 k-point  4 :   0.3750 0.0000 0.0000  plane waves:    4979
 k-point  5 :   0.5000 0.0000 0.0000  plane waves:    4988
 k-point  6 :   0.1250 0.1250 0.0000  plane waves:    4981
 k-point  7 :   0.2500 0.1250 0.0000  plane waves:    4962
 k-point  8 :   0.3750 0.1250 0.0000  plane waves:    5005
 k-point  9 :   0.5000 0.1250 0.0000  plane waves:    4995
 k-point 10 :  -0.3750 0.1250 0.0000  plane waves:    5004
 k-point 11 :  -0.2500 0.1250 0.0000  plane waves:    4987
 k-point 12 :  -0.1250 0.1250 0.0000  plane waves:    4986
 k-point 13 :   0.2500 0.2500 0.0000  plane waves:    4985
 k-point 14 :   0.3750 0.2500 0.0000  plane waves:    4992
 k-point 15 :   0.5000 0.2500 0.0000  plane waves:    5004
 k-point 16 :  -0.3750 0.2500 0.0000  plane waves:    5014
 k-point 17 :  -0.2500 0.2500 0.0000  plane waves:    4992
 k-point 18 :   0.3750 0.3750 0.0000  plane waves:    4997
 k-point 19 :   0.5000 0.3750 0.0000  plane waves:    4993
 k-point 20 :  -0.3750 0.3750 0.0000  plane waves:    5010
 k-point 21 :   0.5000 0.5000 0.0000  plane waves:    4992
 k-point 22 :   0.3750 0.2500 0.1250  plane waves:    4987
 k-point 23 :   0.5000 0.2500 0.1250  plane waves:    4997
 k-point 24 :  -0.3750 0.2500 0.1250  plane waves:    5002
 k-point 25 :   0.5000 0.3750 0.1250  plane waves:    4985
 k-point 26 :  -0.3750 0.3750 0.1250  plane waves:    5006
 k-point 27 :  -0.2500 0.3750 0.1250  plane waves:    4996
 k-point 28 :  -0.3750 0.5000 0.1250  plane waves:    5002
 k-point 29 :  -0.2500 0.5000 0.2500  plane waves:    5044

 maximum and minimum number of plane-waves per node :       732      699

 maximum number of plane-waves:      5044
 maximum index in each direction:
   IXMAX=   12   IYMAX=   11   IZMAX=   11
   IXMIN=  -12   IYMIN=  -12   IZMIN=  -12

 parallel 3D FFT for wavefunctions:
    minimum data exchange during FFTs selected (reduces bandwidth)
 parallel 3D FFT for charge:
    minimum data exchange during FFTs selected (reduces bandwidth)

 Broyden mixing: mesh for mixing (old mesh)
   NGX = 23   NGY = 23   NGZ = 23
  (NGX  = 96   NGY  = 96   NGZ  = 96)
  gives a total of  12167 points

 initial charge density was supplied:
 charge density of overlapping atoms calculated
 number of electron      32.0000000 magnetization
 keeping initial charge density in first step

 Maximum index for augmentation-charges         4610 (set IRDMAX)

 First call to EWALD:  gamma=   0.311
 Maximum number of real-space cells 3x 3x 3
 Maximum number of reciprocal cells 3x 3x 3

--------------------------------------- Iteration      1(   1)  ---------------------------------------

 eigenvalue-minimisations  :  1160
 total energy-change (2. order) : 0.2245747E+03  (-0.1287924E+04)
 number of electron      32.0000000 magnetization
 augmentation part       32.0000000 magnetization

 Free energy of the ion-electron system (eV)
  alpha Z        PSCENC =        92.28858994
  Ewald energy   TEWEN  =     -1516.92148236
  -Hartree energ DENC   =      -400.59725681
  -exchange      EXHF   =         0.00000000
  -V(xc)+E(xc)   XCENC  =        22.19501211
  PAW double counting   =      1598.61849123    -1528.63182258
  entropy T*S    EENTRO =        -0.00446883
  eigenvalues    EBANDS =       -73.01093600
  atomic energy  EATOM  =      2030.63862089
  Solvation  Ediel_sol  =         0.00000000
  free energy    TOTEN  =       224.57474760 eV

  energy without entropy =      224.57921643  energy(sigma->0) =      224.57698201

[...]

 eigenvalue-minimisations  :  1548
 total energy-change (2. order) :-0.2137083E+03  (-0.2090986E+03)
 number of electron      32.0000000 magnetization
 augmentation part       32.0000000 magnetization

[...]

 Broyden mixing:
  rms(total) = 0.42632E+00    rms(broyden)= 0.42632E+00
  rms(prec ) = 0.11938E+01
  weight for this iteration     100.00

[...]

 eigenvalues of (default mixing * dielectric matrix)
  average eigenvalue GAMMA=   1.5564
  1.5564

[...]

 eigenvalue-minimisations  :   892
 total energy-change (2. order) :-0.5055063E-07  (-0.6665144E-09)
 number of electron      32.0000002 magnetization
 augmentation part       -3.1534766 magnetization

 Broyden mixing:
  rms(total) = 0.16984E-04    rms(broyden)= 0.16984E-04
  rms(prec ) = 0.34464E-04
  weight for this iteration     100.00

 eigenvalues of (default mixing * dielectric matrix)
  average eigenvalue GAMMA=   1.6948
  3.2639  2.9644  2.2690  2.2690  2.1849  1.3672  1.0986  1.0986  1.0217  1.0217
  0.8246  0.9540

[...]

--------------------------------------- Iteration      1(  18)  ---------------------------------------

 eigenvalue-minimisations  :   932
 total energy-change (2. order) : 0.9852101E-09  (-0.5962768E-09)
 number of electron      32.0000002 magnetization
 augmentation part       -3.1534766 magnetization

 Free energy of the ion-electron system (eV)
  alpha Z        PSCENC =        92.28858994
  Ewald energy   TEWEN  =     -1516.92148236
  -Hartree energ DENC   =      -389.16563554
  -exchange      EXHF   =         0.00000000
  -V(xc)+E(xc)   XCENC  =        22.33167711
  PAW double counting   =      1753.58519273    -1684.34799983
  entropy T*S    EENTRO =        -0.00000000
  eigenvalues    EBANDS =      -316.67675957
  atomic energy  EATOM  =      2030.63862089
  Solvation  Ediel_sol  =         0.00000000
  free energy    TOTEN  =        -8.26779663 eV

  energy without entropy =       -8.26779663  energy(sigma->0) =       -8.26779663

 average (electrostatic) potential at core
  the test charge radii are     1.1312  1.1097  1.1712
  (the norm of the test charge is              1.0000)
       1 -51.0685       2 -38.1374       3 -38.1374       4 -89.0228

 E-fermi :   2.1208     XC(G=0):  -7.5849     alpha+bet : -7.3764

 k-point     1 :       0.0000    0.0000    0.0000
  band No.  band energies     occupation
      1     -25.8401      2.00000
      2     -25.8205      2.00000
      3     -21.3261      2.00000
      4     -10.0289      2.00000
      5     -10.0289      2.00000
      6     -10.0289      2.00000
      7      -9.9380      2.00000
      8      -9.9380      2.00000
      9      -9.9380      2.00000
     10      -8.1384      2.00000
     11      -8.1384      2.00000
     12      -8.1384      2.00000
     13      -5.3381      2.00000
     14       1.7258      2.00000
     15       1.7258      2.00000
     16       1.7258      2.00000
     17       2.4639      0.00000
     18       3.6943      0.00000
     19       3.6943      0.00000
     20       4.7516      0.00000

[...]

 k-point    29 :      -0.2500    0.5000    0.2500
  band No.  band energies     occupation
      1     -25.8297      2.00000
      2     -25.8297      2.00000
      3     -21.3289      2.00000
      4     -10.1412      2.00000
      5     -10.0522      2.00000
      6     -10.0074      2.00000
      7     -10.0074      2.00000
      8      -9.8859      2.00000
      9      -9.8836      2.00000
     10      -8.1389      2.00000
     11      -8.1389      2.00000
     12      -8.0866      2.00000
     13      -5.1799      2.00000
     14       1.3111      2.00000
     15       1.3112      2.00000
     16       1.5794      2.00000
     17       3.9043      0.00000
     18       4.2764      0.00000
     19       4.2764      0.00000
     20       4.9648      0.00000

 soft charge-density along one line, spin component           1
         0         1         2         3         4         5         6         7         8         9
 total charge-density along one line

------------------------ aborting loop because EDIFF is reached ----------------------------------------

  FORCE on cell =-STRESS in cart. coord.  units (eV):
  Direction    XX          YY          ZZ          XY          YZ          ZX
  Alpha Z    92.28859    92.28859    92.28859
  Ewald    -505.64093  -505.64093  -505.64093     0.00013     0.00013     0.00013
  Hartree   129.72192   129.72192   129.72192    -0.00000    -0.00000    -0.00000
  E(xc)    -118.20751  -118.20751  -118.20751     0.00000     0.00000     0.00000
  Local      25.49960    25.49960    25.49960    -0.00008    -0.00008    -0.00008
  n-local     4.57749     4.71187     3.20189     0.88022    -0.72097     0.49174
  augment   -32.32388   -32.32388   -32.32388    -0.00000    -0.00000    -0.00000
  Kinetic   405.36041   404.95381   403.19410     1.72038    -1.46658     1.00663
  Fock        0.00000     0.00000     0.00000     0.00000     0.00000     0.00000
  Total       0.00432     0.00432     0.00432     0.00000    -0.00000    -0.00000
  in kB       0.03731     0.03731     0.03731     0.00000    -0.00000    -0.00000

 VOLUME and BASIS-vectors are now :
  energy-cutoff  :      520.00
  volume of cell :      185.54
      direct lattice vectors                 reciprocal lattice vectors
     0.000000000  4.526939575  4.526939575    -0.110449895  0.110449895  0.110449895
     4.526939575  0.000000000  4.526939575     0.110449895 -0.110449895  0.110449895
     4.526939575  4.526939575  0.000000000     0.110449895  0.110449895 -0.110449895

  length of vectors
     6.402059343  6.402059343  6.402059343     0.191304830  0.191304830  0.191304830

 FORCES acting on ions
    electron-ion (+dipol)            ewald-force                    non-local-force                 convergence-correction
   0.158E-02 0.158E-02 0.141E-02   0.382E-03 0.382E-03 0.382E-03   -.593E-20 -.169E-20 -.424E-20   -.350E-06 -.350E-06 -.294E-06
   -.209E-02 -.209E-02 -.221E-02   -.182E-03 -.182E-03 -.182E-03   0.330E-16 0.434E-16 0.182E-16   0.188E-06 0.188E-06 0.188E-06
   -.781E-03 -.781E-03 -.905E-03   0.587E-05 0.587E-05 0.587E-05   -.295E-16 -.382E-16 -.204E-16   -.965E-07 -.965E-07 -.961E-07
   -.760E-03 -.760E-03 -.710E-03   -.205E-03 -.205E-03 -.205E-03   -.508E-20 0.424E-20 0.424E-20   0.129E-06 0.129E-06 0.103E-06
   -.205E-02 -.205E-02 -.241E-02   0.369E-15 -.155E-15 0.628E-16   0.346E-17 0.521E-17 -.217E-17   -.130E-06 -.130E-06 -.994E-07

 POSITION                                       TOTAL-FORCE (eV/Angst)
      2.26346      2.26346      2.26346        -0.000000     -0.000000     -0.000000
      0.00000      0.00000      0.00000        -0.000000     -0.000000     -0.000000
      4.52694      4.52694      4.52694         0.000000      0.000000      0.000000
      6.79041      6.79041      6.79041         0.000000     -0.000000     -0.000000
    total drift:                               -0.002049     -0.002049     -0.002414

  FREE ENERGIE OF THE ION-ELECTRON SYSTEM (eV)
  free  energy   TOTEN  =        -8.26779663 eV

  energy  without entropy=       -8.26779663  energy(sigma->0) =       -8.26779663