 vasp.5.4.4.18Apr17-6-g9f103f2a35 (build Jun 23 2019 17:35:09) complex

 executed on             LinuxIFC date 2020.01.15  15:38:30

 INCAR:
 POTCAR:    PAW_PBE Bi_d 06Sep2000
 POTCAR:    PAW_PBE Cs_sv 08Apr2002
 POTCAR:    PAW_PBE K_sv 06Sep2000

 POTCAR:    PAW_PBE Bi_d 06Sep2000
   VRHFIN =Bi:

   TITEL  = PAW_PBE Bi_d 06Sep2000
   POMASS =  208.980; ZVAL   =   15.000    mass and valenz
   ENMAX  =  242.839; ENMIN  =  182.129 eV

 POTCAR:    PAW_PBE Cs_sv 08Apr2002
   VRHFIN =Cs: 5s5p6s

   TITEL  = PAW_PBE Cs_sv 08Apr2002
   POMASS =  132.900; ZVAL   =    9.000    mass and valenz
   ENMAX  =  220.318; ENMIN  =  165.238 eV

 POTCAR:    PAW_PBE K_sv 06Sep2000
   VRHFIN =K:  3s3p4s

   TITEL  = PAW_PBE K_sv 06Sep2000
   POMASS =   39.098; ZVAL   =    9.000    mass and valenz
   ENMAX  =  259.264; ENMIN  =  194.448 eV

  PAW_PBE Bi_d 06Sep2000                :
  PAW_PBE Cs_sv 08Apr2002               :
  PAW_PBE K_sv 06Sep2000                :

 POSCAR: Cs K Bi
  positions in direct lattice
  velocities in cartesian coordinates
 exchange correlation table for  LEXCH =        8
   RHO(1)=    0.500       N(1)  =     2000
   RHO(2)=  100.500       N(2)  =     4000

 ion  position               nearest neighbor table
   1  0.250  0.250  0.250-   4 3.86   3 3.86   3 3.86   3 3.86   4 3.86   4 3.86   4 3.86   3 3.86

   2  0.750  0.750  0.750-
   3  0.000  0.000  0.000-   1 3.86   1 3.86   1 3.86   1 3.86
   4  0.500  0.500  0.500-   1 3.86   1 3.86   1 3.86   1 3.86

  LATTYP: Found a face centered cubic cell.
 ALAT       =     8.9187190579

  Lattice vectors:

 A1 = (   0.0000000000,   4.4593595290,   4.4593595290)
 A2 = (   4.4593595290,   0.0000000000,   4.4593595290)
 A3 = (   4.4593595290,   4.4593595290,   0.0000000000)

Analysis of symmetry for initial positions (statically):
 Subroutine PRICEL returns:
 Original cell was already a primitive cell.

 Routine SETGRP: Setting up the symmetry group for a
 face centered cubic supercell.

 Subroutine GETGRP returns: Found 48 space group operations
 (whereof 24 operations were pure point group operations)
 out of a pool of 48 trial point group operations.

The static configuration has the point symmetry T_d .
 The point group associated with its full space group is O_h .

Analysis of symmetry for dynamics (positions and initial velocities):
 Subroutine PRICEL returns:
 Original cell was already a primitive cell.

 Routine SETGRP: Setting up the symmetry group for a
 face centered cubic supercell.

 Subroutine GETGRP returns: Found 48 space group operations
 (whereof 24 operations were pure point group operations)
 out of a pool of 48 trial point group operations.

The dynamic configuration has the point symmetry T_d .
 The point group associated with its full space group is O_h .

 Subroutine INISYM returns: Found 48 space group operations
 (whereof 24 operations are pure point group operations),
 and found     1 'primitive' translations

 KPOINTS: KPOINTS

Automatic generation of k-mesh.
Space group operators:
 irot       det(A)        alpha          n_x          n_y          n_z        tau_x        tau_y        tau_z
    1     1.000000     0.000000     1.000000     0.000000     0.000000     0.000000     0.000000     0.000000
    2     1.000000   120.000000    -0.577350    -0.577350    -0.577350     0.000000     0.000000     0.000000
    3     1.000000   120.000000     0.577350     0.577350     0.577350     0.000000     0.000000     0.000000
    4    -1.000000    90.000000     0.000000     0.000000    -1.000000     0.000000     0.000000     0.000000
    5    -1.000000   180.000000     0.000000     0.707107     0.707107     0.000000     0.000000     0.000000
    6    -1.000000    90.000000     0.000000     1.000000     0.000000     0.000000     0.000000     0.000000
    7     1.000000   180.000000     0.000000     0.000000     1.000000     0.000000     0.000000     0.000000
    8     1.000000   120.000000    -0.577350     0.577350     0.577350     0.000000     0.000000     0.000000
    9     1.000000   120.000000    -0.577350     0.577350    -0.577350     0.000000     0.000000     0.000000
   10    -1.000000    90.000000     0.000000     0.000000     1.000000     0.000000     0.000000     0.000000
   11    -1.000000    90.000000    -1.000000     0.000000     0.000000     0.000000     0.000000     0.000000
   12    -1.000000   180.000000     0.707107     0.000000     0.707107     0.000000     0.000000     0.000000
   13     1.000000   120.000000     0.577350    -0.577350     0.577350     0.000000     0.000000     0.000000
   14     1.000000   120.000000    -0.577350    -0.577350     0.577350     0.000000     0.000000     0.000000
   15     1.000000   180.000000     1.000000     0.000000     0.000000     0.000000     0.000000     0.000000
   16    -1.000000    90.000000     0.000000    -1.000000     0.000000     0.000000     0.000000     0.000000
   17    -1.000000   180.000000     0.707107     0.707107     0.000000     0.000000     0.000000     0.000000
   18    -1.000000    90.000000     1.000000     0.000000     0.000000     0.000000     0.000000     0.000000
   19     1.000000   120.000000     0.577350    -0.577350    -0.577350     0.000000     0.000000     0.000000
   20     1.000000   180.000000     0.000000     1.000000     0.000000     0.000000     0.000000     0.000000
   21     1.000000   120.000000     0.577350     0.577350    -0.577350     0.000000     0.000000     0.000000
   22    -1.000000   180.000000     0.000000    -0.707107     0.707107     0.000000     0.000000     0.000000
   23    -1.000000   180.000000     0.707107    -0.707107     0.000000     0.000000     0.000000     0.000000
   24    -1.000000   180.000000     0.707107     0.000000    -0.707107     0.000000     0.000000     0.000000
   25    -1.000000     0.000000     1.000000     0.000000     0.000000     0.500001     0.500001     0.500001
   26    -1.000000   120.000000    -0.577350    -0.577350    -0.577350     0.500001     0.500001     0.500001
   27    -1.000000   120.000000     0.577350     0.577350     0.577350     0.500001     0.500001     0.500001
   28     1.000000    90.000000     0.000000     0.000000    -1.000000     0.499999     0.500001     0.500001
   29     1.000000   180.000000     0.000000     0.707107     0.707107     0.499999     0.500001     0.500001
   30     1.000000    90.000000     0.000000     1.000000     0.000000     0.499999     0.500001     0.500001
   31    -1.000000   180.000000     0.000000     0.000000     1.000000     0.500001     0.500001     0.499999
   32    -1.000000   120.000000    -0.577350     0.577350     0.577350     0.500001     0.500001     0.499999
   33    -1.000000   120.000000    -0.577350     0.577350    -0.577350     0.500001     0.500001     0.499999
   34     1.000000    90.000000     0.000000     0.000000     1.000000     0.500001     0.499999     0.500001
   35     1.000000    90.000000    -1.000000     0.000000     0.000000     0.500001     0.499999     0.500001
   36     1.000000   180.000000     0.707107     0.000000     0.707107     0.500001     0.499999     0.500001
   37    -1.000000   120.000000     0.577350    -0.577350     0.577350     0.499999     0.500001     0.500001
   38    -1.000000   120.000000    -0.577350    -0.577350     0.577350     0.499999     0.500001     0.500001
   39    -1.000000   180.000000     1.000000     0.000000     0.000000     0.499999     0.500001     0.500001
   40     1.000000    90.000000     0.000000    -1.000000     0.000000     0.500001     0.500001     0.499999
   41     1.000000   180.000000     0.707107     0.707107     0.000000     0.500001     0.500001     0.499999
   42     1.000000    90.000000     1.000000     0.000000     0.000000     0.500001     0.500001     0.499999
   43    -1.000000   120.000000     0.577350    -0.577350    -0.577350     0.500001     0.499999     0.500001
   44    -1.000000   180.000000     0.000000     1.000000     0.000000     0.500001     0.499999     0.500001
   45    -1.000000   120.000000     0.577350     0.577350    -0.577350     0.500001     0.499999     0.500001
   46     1.000000   180.000000     0.000000    -0.707107     0.707107     0.500001     0.500001     0.500001
   47     1.000000   180.000000     0.707107    -0.707107     0.000000     0.500001     0.500001     0.500001
   48     1.000000   180.000000     0.707107     0.000000    -0.707107     0.500001     0.500001     0.500001

 Subroutine IBZKPT returns following result:

 Found     29 irreducible k-points:

 Following reciprocal coordinates:
            Coordinates               Weight
  0.000000  0.000000  0.000000      1.000000
  0.125000  0.000000  0.000000      8.000000
  0.250000  0.000000  0.000000      8.000000
  0.375000  0.000000  0.000000      8.000000
  0.500000  0.000000  0.000000      4.000000
  0.125000  0.125000  0.000000      6.000000
  0.250000  0.125000  0.000000     24.000000
  0.375000  0.125000  0.000000     24.000000
  0.500000  0.125000  0.000000     24.000000
 -0.375000  0.125000  0.000000     24.000000
 -0.250000  0.125000  0.000000     24.000000
 -0.125000  0.125000  0.000000     12.000000
  0.250000  0.250000  0.000000      6.000000
  0.375000  0.250000  0.000000     24.000000
  0.500000  0.250000  0.000000     24.000000
 -0.375000  0.250000  0.000000     24.000000
 -0.250000  0.250000  0.000000     12.000000
  0.375000  0.375000  0.000000      6.000000
  0.500000  0.375000  0.000000     24.000000
 -0.375000  0.375000  0.000000     12.000000
  0.500000  0.500000  0.000000      3.000000
  0.375000  0.250000  0.125000     24.000000
  0.500000  0.250000  0.125000     48.000000
 -0.375000  0.250000  0.125000     24.000000
  0.500000  0.375000  0.125000     24.000000
 -0.375000  0.375000  0.125000     48.000000
 -0.250000  0.375000  0.125000     24.000000
 -0.375000  0.500000  0.125000     12.000000
 -0.250000  0.500000  0.250000      6.000000

 Following cartesian coordinates:
            Coordinates               Weight
  0.000000  0.000000  0.000000      1.000000
 -0.014015  0.014015  0.014015      8.000000
 -0.028031  0.028031  0.028031      8.000000
 -0.042046  0.042046  0.042046      8.000000
 -0.056062  0.056062  0.056062      4.000000
  0.000000  0.000000  0.028031      6.000000
 -0.014015  0.014015  0.042046     24.000000
 -0.028031  0.028031  0.056062     24.000000
 -0.042046  0.042046  0.070077     24.000000
  0.056062 -0.056062 -0.028031     24.000000
  0.042046 -0.042046 -0.014015     24.000000
  0.028031 -0.028031  0.000000     12.000000
  0.000000  0.000000  0.056062      6.000000
 -0.014015  0.014015  0.070077     24.000000
 -0.028031  0.028031  0.084093     24.000000
  0.070077 -0.070077 -0.014015     24.000000
  0.056062 -0.056062  0.000000     12.000000
  0.000000  0.000000  0.084093      6.000000
 -0.014015  0.014015  0.098108     24.000000
  0.084093 -0.084093  0.000000     12.000000
  0.000000  0.000000  0.112124      3.000000
  0.000000  0.028031  0.056062     24.000000
 -0.014015  0.042046  0.070077     48.000000
  0.084093 -0.056062 -0.028031     24.000000
  0.000000  0.028031  0.084093     24.000000
  0.098108 -0.070077 -0.014015     48.000000
  0.084093 -0.056062 -0.000000     24.000000
[...]
   AEXX    =    0.0000 exact exchange contribution

 Linear response parameters
   LEPSILON=     F    determine dielectric tensor
   LRPA    =     F    only Hartree local field effects (RPA)
   LNABLA  =     F    use nabla operator in PAW spheres
   LVEL    =     F    velocity operator in full k-point grid
   LINTERFAST=   F  fast interpolation
   KINTER  =     0    interpolate to denser k-point grid
   CSHIFT  =0.1000    complex shift for real part using Kramers Kronig
   OMEGAMAX=  -1.0    maximum frequency
   DEG_THRESHOLD= 0.2000000E-02 threshold for treating states as degnerate
   RTIME   =   -0.100 relaxation time in fs
  (WPLASMAI=    0.000 imaginary part of plasma frequency in eV, 0.658/RTIME)
   DFIELD  = 0.0000000 0.0000000 0.0000000 field for delta impulse in time

 Orbital magnetization related:
   ORBITALMAG=     F  switch on orbital magnetization
   LCHIMAG   =     F  perturbation theory with respect to B field
   DQ        =  0.001000  dq finite difference perturbation B field
   LLRAUG    =     F  two centre corrections for induced B field

 Static calculation
 charge density and potential will be updated during run
 non-spin polarized calculation
 Variant of blocked Davidson
 Davidson routine will perform the subspace rotation
 perform sub-space diagonalisation
    after iterative eigenvector-optimisation
 modified Broyden-mixing scheme, WC =      100.0
 initial mixing is a Kerker type mixing with AMIX =  0.4000 and BMIX =      1.0000
 Hartree-type preconditioning will be used
 using additional bands            4
 reciprocal scheme for non local part
 use partial core corrections
 calculate Harris-corrections to forces
   (improved forces if not selfconsistent)
 use gradient corrections
 use of overlap-Matrix (Vanderbilt PP)
 Gauss-broadening in eV      SIGMA  =   0.05

  energy-cutoff  :      520.00
  volume of cell :      177.36
      direct lattice vectors                 reciprocal lattice vectors
     0.000000000  4.459359529  4.459359529    -0.112123725  0.112123725  0.112123725
     4.459359529  0.000000000  4.459359529     0.112123725 -0.112123725  0.112123725
     4.459359529  4.459359529  0.000000000     0.112123725  0.112123725 -0.112123725

  length of vectors
     6.306486725  6.306486725  6.306486725     0.194203988  0.194203988  0.194203988

 k-points in units of 2pi/SCALE and weight: KPOINTS
   0.00000000  0.00000000  0.00000000       0.002
  -0.01401547  0.01401547  0.01401547       0.016
  -0.02803093  0.02803093  0.02803093       0.016
  -0.04204640  0.04204640  0.04204640       0.016
  -0.05606186  0.05606186  0.05606186       0.008
   0.00000000  0.00000000  0.02803093       0.012
  -0.01401547  0.01401547  0.04204640       0.047
  -0.02803093  0.02803093  0.05606186       0.047
  -0.04204640  0.04204640  0.07007733       0.047
   0.05606186 -0.05606186 -0.02803093       0.047
   0.04204640 -0.04204640 -0.01401547       0.047
   0.02803093 -0.02803093  0.00000000       0.023
   0.00000000  0.00000000  0.05606186       0.012
  -0.01401547  0.01401547  0.07007733       0.047
  -0.02803093  0.02803093  0.08409279       0.047
   0.07007733 -0.07007733 -0.01401547       0.047
   0.05606186 -0.05606186  0.00000000       0.023
   0.00000000  0.00000000  0.08409279       0.012
  -0.01401547  0.01401547  0.09810826       0.047
   0.08409279 -0.08409279  0.00000000       0.023
   0.00000000  0.00000000  0.11212372       0.006
   0.00000000  0.02803093  0.05606186       0.047
  -0.01401547  0.04204640  0.07007733       0.094
   0.08409279 -0.05606186 -0.02803093       0.047
   0.00000000  0.02803093  0.08409279       0.047
   0.09810826 -0.07007733 -0.01401547       0.094
   0.08409279 -0.05606186 -0.00000000       0.047
   0.11212372 -0.08409279 -0.00000000       0.023
   0.11212372 -0.05606186 -0.00000000       0.012

 k-points in reciprocal lattice and weights: KPOINTS
   0.00000000  0.00000000  0.00000000       0.002
   0.12500000  0.00000000  0.00000000       0.016
   0.25000000  0.00000000  0.00000000       0.016
   0.37500000  0.00000000  0.00000000       0.016
   0.50000000  0.00000000  0.00000000       0.008
   0.12500000  0.12500000  0.00000000       0.012
   0.25000000  0.12500000  0.00000000       0.047
   0.37500000  0.12500000  0.00000000       0.047
   0.50000000  0.12500000  0.00000000       0.047
  -0.37500000  0.12500000  0.00000000       0.047
  -0.25000000  0.12500000  0.00000000       0.047
  -0.12500000  0.12500000  0.00000000       0.023
   0.25000000  0.25000000  0.00000000       0.012
   0.37500000  0.25000000  0.00000000       0.047
   0.50000000  0.25000000  0.00000000       0.047
  -0.37500000  0.25000000  0.00000000       0.047
  -0.25000000  0.25000000  0.00000000       0.023
   0.37500000  0.37500000  0.00000000       0.012
   0.50000000  0.37500000  0.00000000       0.047
  -0.37500000  0.37500000  0.00000000       0.023
   0.50000000  0.50000000  0.00000000       0.006
   0.37500000  0.25000000  0.12500000       0.047
   0.50000000  0.25000000  0.12500000       0.094
  -0.37500000  0.25000000  0.12500000       0.047
   0.50000000  0.37500000  0.12500000       0.047
  -0.37500000  0.37500000  0.12500000       0.094
  -0.25000000  0.37500000  0.12500000       0.047
  -0.37500000  0.50000000  0.12500000       0.023
  -0.25000000  0.50000000  0.25000000       0.012

 position of ions in fractional coordinates (direct lattice)
   0.25000051  0.25000051  0.25000051
   0.75000039  0.75000039  0.75000039
   0.00000000  0.00000000  0.00000000
   0.49999989  0.49999989  0.49999989

 position of ions in cartesian coordinates  (Angst):
   2.22968428  2.22968428  2.22968428
   6.68904281  6.68904281  6.68904281
   0.00000000  0.00000000  0.00000000
   4.45935853  4.45935853  4.45935853

 k-point  1 :   0.0000 0.0000 0.0000  plane waves:    4693
 k-point  2 :   0.1250 0.0000 0.0000  plane waves:    4780
 k-point  3 :   0.2500 0.0000 0.0000  plane waves:    4774
 k-point  4 :   0.3750 0.0000 0.0000  plane waves:    4762
 k-point  5 :   0.5000 0.0000 0.0000  plane waves:    4802
 k-point  6 :   0.1250 0.1250 0.0000  plane waves:    4781
 k-point  7 :   0.2500 0.1250 0.0000  plane waves:    4784
 k-point  8 :   0.3750 0.1250 0.0000  plane waves:    4760
 k-point  9 :   0.5000 0.1250 0.0000  plane waves:    4783
 k-point 10 :  -0.3750 0.1250 0.0000  plane waves:    4768
 k-point 11 :  -0.2500 0.1250 0.0000  plane waves:    4769
 k-point 12 :  -0.1250 0.1250 0.0000  plane waves:    4789
 k-point 13 :   0.2500 0.2500 0.0000  plane waves:    4801
 k-point 14 :   0.3750 0.2500 0.0000  plane waves:    4774
 k-point 15 :   0.5000 0.2500 0.0000  plane waves:    4770
 k-point 16 :  -0.3750 0.2500 0.0000  plane waves:    4777
 k-point 17 :  -0.2500 0.2500 0.0000  plane waves:    4768
 k-point 18 :   0.3750 0.3750 0.0000  plane waves:    4772
 k-point 19 :   0.5000 0.3750 0.0000  plane waves:    4777
 k-point 20 :  -0.3750 0.3750 0.0000  plane waves:    4766
 k-point 21 :   0.5000 0.5000 0.0000  plane waves:    4800
 k-point 22 :   0.3750 0.2500 0.1250  plane waves:    4773
 k-point 23 :   0.5000 0.2500 0.1250  plane waves:    4768
 k-point 24 :  -0.3750 0.2500 0.1250  plane waves:    4778
 k-point 25 :   0.5000 0.3750 0.1250  plane waves:    4787
 k-point 26 :  -0.3750 0.3750 0.1250  plane waves:    4778
 k-point 27 :  -0.2500 0.3750 0.1250  plane waves:    4775
 k-point 28 :  -0.3750 0.5000 0.1250  plane waves:    4776
 k-point 29 :  -0.2500 0.5000 0.2500  plane waves:    4732

 maximum and minimum number of plane-waves per node :       697      663

 maximum number of plane-waves:      4802
 maximum index in each direction:
   IXMAX=   12   IYMAX=   11   IZMAX=   11
   IXMIN=  -12   IYMIN=  -12   IZMIN=  -11

 parallel 3D FFT for wavefunctions:
    minimum data exchange during FFTs selected (reduces bandwidth)
 parallel 3D FFT for charge:
    minimum data exchange during FFTs selected (reduces bandwidth)

 Broyden mixing: mesh for mixing (old mesh)
   NGX = 23   NGY = 23   NGZ = 23
  (NGX  = 96   NGY  = 96   NGZ  = 96)
  gives a total of  12167 points

 initial charge density was supplied:
 charge density of overlapping atoms calculated
 number of electron      42.0000000 magnetization
 keeping initial charge density in first step

 Maximum index for augmentation-charges         4340 (set IRDMAX)

 First call to EWALD:  gamma=   0.315
 Maximum number of real-space cells 3x 3x 3
 Maximum number of reciprocal cells 3x 3x 3

--------------------------------------- Iteration      1(   1)  ---------------------------------------

 eigenvalue-minimisations  :  1450
 total energy-change (2. order) : 0.3855772E+03  (-0.1956842E+04)
 number of electron      42.0000000 magnetization
 augmentation part       42.0000000 magnetization

 Free energy of the ion-electron system (eV)
  alpha Z        PSCENC =       139.65821781
  Ewald energy   TEWEN  =     -2671.57065026
  -Hartree energ DENC   =     -1157.65171895
  -exchange      EXHF   =         0.00000000
  -V(xc)+E(xc)   XCENC  =       129.92733453
  PAW double counting   =      3288.09641306    -3241.43768472
  entropy T*S    EENTRO =        -0.00201470
  eigenvalues    EBANDS =      -166.33575490
  atomic energy  EATOM  =      4064.89301065
  Solvation  Ediel_sol  =         0.00000000
  free energy    TOTEN  =       385.57715252 eV

  energy without entropy =      385.57916721  energy(sigma->0) =      385.57815986

[...]

 eigenvalue-minimisations  :  1705
 total energy-change (2. order) :-0.3612569E+03  (-0.3567739E+03)
 number of electron      42.0000000 magnetization
 augmentation part       42.0000000 magnetization

[...]

 Broyden mixing:
  rms(total) = 0.44747E+00    rms(broyden)= 0.44747E+00
  rms(prec ) = 0.10480E+01
  weight for this iteration     100.00

[...]

 eigenvalues of (default mixing * dielectric matrix)
  average eigenvalue GAMMA=   1.7325
  1.7325

[...]

 eigenvalue-minimisations  :  1896
 total energy-change (2. order) : 0.2088909E-06  (-0.1859277E-06)
 number of electron      42.0000003 magnetization
 augmentation part        6.7142332 magnetization

 Broyden mixing:
  rms(total) = 0.28121E-04    rms(broyden)= 0.28119E-04
  rms(prec ) = 0.52420E-04
  weight for this iteration     100.00

 eigenvalues of (default mixing * dielectric matrix)
  average eigenvalue GAMMA=   1.7522
  3.2269  2.4540  2.4540  1.7753  1.6097  1.1417  1.1417  0.9831  0.9831

[...]

--------------------------------------- Iteration      1(  15)  ---------------------------------------

 eigenvalue-minimisations  :  1659
 total energy-change (2. order) :-0.4888534E-08  (-0.8417751E-08)
 number of electron      42.0000003 magnetization
 augmentation part        6.7142332 magnetization

 Free energy of the ion-electron system (eV)
  alpha Z        PSCENC =       139.65821781
  Ewald energy   TEWEN  =     -2671.57065026
  -Hartree energ DENC   =     -1157.57732129
  -exchange      EXHF   =         0.00000000
  -V(xc)+E(xc)   XCENC  =       129.76668752
  PAW double counting   =      3385.08803472    -3341.42911233
  entropy T*S    EENTRO =        -0.00000002
  eigenvalues    EBANDS =      -557.14500044
  atomic energy  EATOM  =      4064.89301065
  Solvation  Ediel_sol  =         0.00000000
  free energy    TOTEN  =        -8.31613365 eV

  energy without entropy =       -8.31613363  energy(sigma->0) =       -8.31613364

 average (electrostatic) potential at core
  the test charge radii are     1.0856  1.1312  1.1045
  (the norm of the test charge is              1.0000)
       1-107.2914       2 -50.8650       3 -36.5113       4 -36.5113

 E-fermi :   1.9703     XC(G=0):  -7.6422     alpha+bet : -7.3764

 k-point     1 :       0.0000    0.0000    0.0000
  band No.  band energies     occupation
      1     -29.2395      2.00000
      2     -29.2308      2.00000
      3     -21.1320      2.00000
      4     -19.0806      2.00000
      5     -19.0806      2.00000
      6     -19.0806      2.00000
      7     -19.0763      2.00000
      8     -19.0763      2.00000
      9     -12.7703      2.00000
     10     -12.7703      2.00000
     11     -12.7703      2.00000
     12     -12.7238      2.00000
     13     -12.7238      2.00000
     14     -12.7238      2.00000
     15      -7.9816      2.00000
     16      -7.9816      2.00000
     17      -7.9816      2.00000
     18      -7.0831      2.00000
     19       1.8133      1.99999
     20       1.8133      1.99999
     21       1.8133      1.99999
     22       2.1172      0.00003
     23       3.9693      0.00000
     24       3.9693      0.00000
     25       4.3649      0.00000

[...]

 k-point    29 :      -0.2500    0.5000    0.2500
  band No.  band energies     occupation
      1     -29.2350      2.00000
      2     -29.2350      2.00000
      3     -21.1331      2.00000
      4     -19.0803      2.00000
      5     -19.0803      2.00000
      6     -19.0803      2.00000
      7     -19.0763      2.00000
      8     -19.0762      2.00000
      9     -12.7999      2.00000
     10     -12.7788      2.00000
     11     -12.7514      2.00000
     12     -12.7514      2.00000
     13     -12.7105      2.00000
     14     -12.7092      2.00000
     15      -7.9987      2.00000
     16      -7.9987      2.00000
     17      -7.9877      2.00000
     18      -6.9795      2.00000
     19       1.2048      2.00000
     20       1.2048      2.00000
     21       1.3760      2.00000
     22       4.0700      0.00000
     23       4.3091      0.00000
     24       4.3091      0.00000
     25       4.8400      0.00000

 soft charge-density along one line, spin component           1
         0         1         2         3         4         5         6         7         8         9
 total charge-density along one line

------------------------ aborting loop because EDIFF is reached ----------------------------------------

  FORCE on cell =-STRESS in cart. coord.  units (eV):
  Direction    XX          YY          ZZ          XY          YZ          ZX
  Alpha Z   139.65822   139.65822   139.65822
  Ewald    -890.52430  -890.52430  -890.52430     0.00010     0.00010     0.00010
  Hartree   385.85905   385.85905   385.85905     0.00002     0.00002     0.00002
  E(xc)    -180.75359  -180.75359  -180.75359     0.00000     0.00000     0.00000
  Local     -98.65748   -98.65748   -98.65748    -0.00013    -0.00013    -0.00013
  n-local     1.77289     1.81715     0.31237     1.21054    -0.98363     0.63831
  augment   137.42994   137.42994   137.42994     0.00001     0.00001     0.00001
  Kinetic   506.65620   506.21739   504.24429     2.25777    -1.89390     1.31860
  Fock        0.00000     0.00000     0.00000     0.00000     0.00000     0.00000
  Total       0.01860     0.01860     0.01860     0.00000     0.00000    -0.00000
  in kB       0.16805     0.16805     0.16805     0.00000     0.00000    -0.00000

 VOLUME and BASIS-vectors are now :
  energy-cutoff  :      520.00
  volume of cell :      177.36
      direct lattice vectors                 reciprocal lattice vectors
     0.000000000  4.459359529  4.459359529    -0.112123725  0.112123725  0.112123725
     4.459359529  0.000000000  4.459359529     0.112123725 -0.112123725  0.112123725
     4.459359529  4.459359529  0.000000000     0.112123725  0.112123725 -0.112123725

  length of vectors
     6.306486725  6.306486725  6.306486725     0.194203988  0.194203988  0.194203988

 FORCES acting on ions
    electron-ion (+dipol)            ewald-force                    non-local-force                 convergence-correction
   -.205E-02 -.205E-02 -.192E-02   -.507E-03 -.507E-03 -.507E-03   -.455E-20 0.138E-20 -.254E-20   0.149E-05 0.149E-05 0.165E-05
   -.619E-03 -.619E-03 -.544E-03   -.175E-03 -.175E-03 -.175E-03   -.529E-21 0.244E-20 0.635E-21   0.155E-06 0.155E-06 0.813E-07
   0.166E-02 0.166E-02 0.176E-02   0.276E-03 0.276E-03 0.276E-03   -.226E-16 -.694E-17 -.154E-16   -.228E-06 -.228E-06 -.226E-06
   0.236E-02 0.236E-02 0.246E-02   0.406E-03 0.406E-03 0.406E-03   0.191E-16 0.104E-16 0.150E-16   -.819E-06 -.819E-06 -.817E-06
   0.136E-02 0.136E-02 0.175E-02   -.218E-15 0.526E-15 -.158E-14   -.347E-17 0.347E-17 -.436E-18   0.601E-06 0.601E-06 0.691E-06

 POSITION                                       TOTAL-FORCE (eV/Angst)
      2.22968      2.22968      2.22968         0.000000     -0.000000     -0.000000
      6.68904      6.68904      6.68904         0.000000      0.000000      0.000000
      0.00000      0.00000      0.00000         0.000000      0.000000      0.000000
      4.45936      4.45936      4.45936        -0.000000     -0.000000     -0.000000
    total drift:                                0.001357      0.001357      0.001755

  FREE ENERGIE OF THE ION-ELECTRON SYSTEM (eV)
  free  energy   TOTEN  =        -8.31613365 eV

  energy  without entropy=       -8.31613363  energy(sigma->0) =       -8.31613364