 vasp.5.4.4.18Apr17-6-g9f103f2a35 (build Jun 23 2019 17:35:09) complex

 executed on             LinuxIFC date 2020.01.15  15:38:16

 INCAR:
 POTCAR:    PAW_PBE Bi_d 06Sep2000
 POTCAR:    PAW_PBE Li_sv 10Sep2004
 POTCAR:    PAW_PBE Na_pv 19Sep2006

 POTCAR:    PAW_PBE Bi_d 06Sep2000
   VRHFIN =Bi:

   TITEL  = PAW_PBE Bi_d 06Sep2000
   POMASS =  208.980; ZVAL   =   15.000    mass and valenz
   ENMAX  =  242.839; ENMIN  =  182.129 eV

 POTCAR:    PAW_PBE Li_sv 10Sep2004
   VRHFIN =Li: 1s2s2p

   TITEL  = PAW_PBE Li_sv 10Sep2004
   POMASS =    7.010; ZVAL   =    3.000    mass and valenz
   ENMAX  =  499.034; ENMIN  =  374.276 eV

 POTCAR:    PAW_PBE Na_pv 19Sep2006
   VRHFIN =Na: p6s1

   TITEL  = PAW_PBE Na_pv 19Sep2006
   POMASS =   22.990; ZVAL   =    7.000    mass and valenz
   ENMAX  =  259.561; ENMIN  =  194.671 eV

  PAW_PBE Bi_d 06Sep2000                :
  PAW_PBE Li_sv 10Sep2004               :
  PAW_PBE Na_pv 19Sep2006               :

 POSCAR: Na Bi Li
  positions in direct lattice
  velocities in cartesian coordinates
 exchange correlation table for  LEXCH =        8
   RHO(1)=    0.500       N(1)  =     2000
   RHO(2)=  100.500       N(2)  =     4000

 ion  position               nearest neighbor table
   1  0.250  0.250  0.250-   3 3.03   2 3.03   2 3.03   2 3.03   2 3.03   3 3.03   3 3.03   3 3.03

   2  0.000  0.000  0.000-   1 3.03   1 3.03   1 3.03   1 3.03
   3  0.500  0.500  0.500-   1 3.03   1 3.03   1 3.03   1 3.03
   4  0.750  0.750  0.750-

  LATTYP: Found a face centered cubic cell.
 ALAT       =     6.9981121121

  Lattice vectors:

 A1 = (   0.0000000000,   3.4990560561,   3.4990560561)
 A2 = (   3.4990560561,   0.0000000000,   3.4990560561)
 A3 = (   3.4990560561,   3.4990560561,   0.0000000000)

Analysis of symmetry for initial positions (statically):
 Subroutine PRICEL returns:
 Original cell was already a primitive cell.

 Routine SETGRP: Setting up the symmetry group for a
 face centered cubic supercell.

 Subroutine GETGRP returns: Found 48 space group operations
 (whereof 24 operations were pure point group operations)
 out of a pool of 48 trial point group operations.

The static configuration has the point symmetry T_d .
 The point group associated with its full space group is O_h .

Analysis of symmetry for dynamics (positions and initial velocities):
 Subroutine PRICEL returns:
 Original cell was already a primitive cell.

 Routine SETGRP: Setting up the symmetry group for a
 face centered cubic supercell.

 Subroutine GETGRP returns: Found 48 space group operations
 (whereof 24 operations were pure point group operations)
 out of a pool of 48 trial point group operations.

The dynamic configuration has the point symmetry T_d .
 The point group associated with its full space group is O_h .

 Subroutine INISYM returns: Found 48 space group operations
 (whereof 24 operations are pure point group operations),
 and found     1 'primitive' translations

 KPOINTS: KPOINTS

Automatic generation of k-mesh.
Space group operators:
 irot       det(A)        alpha          n_x          n_y          n_z        tau_x        tau_y        tau_z
    1     1.000000     0.000001     1.000000     0.000000     0.000000     0.000000     0.000000     0.000000
    2     1.000000   120.000000    -0.577350    -0.577350    -0.577350     0.000000     0.000000     0.000000
    3     1.000000   120.000000     0.577350     0.577350     0.577350     0.000000     0.000000     0.000000
    4    -1.000000    90.000000     0.000000     0.000000    -1.000000     0.000000     0.000000     0.000000
    5    -1.000000   180.000000     0.000000     0.707107     0.707107     0.000000     0.000000     0.000000
    6    -1.000000    90.000000     0.000000     1.000000     0.000000     0.000000     0.000000     0.000000
    7     1.000000   180.000000     0.000000     0.000000     1.000000     0.000000     0.000000     0.000000
    8     1.000000   120.000000    -0.577350     0.577350     0.577350     0.000000     0.000000     0.000000
    9     1.000000   120.000000    -0.577350     0.577350    -0.577350     0.000000     0.000000     0.000000
   10    -1.000000    90.000000     0.000000     0.000000     1.000000     0.000000     0.000000     0.000000
   11    -1.000000    90.000000    -1.000000     0.000000     0.000000     0.000000     0.000000     0.000000
   12    -1.000000   180.000000     0.707107     0.000000     0.707107     0.000000     0.000000     0.000000
   13     1.000000   120.000000     0.577350    -0.577350     0.577350     0.000000     0.000000     0.000000
   14     1.000000   120.000000    -0.577350    -0.577350     0.577350     0.000000     0.000000     0.000000
   15     1.000000   180.000000     1.000000     0.000000     0.000000     0.000000     0.000000     0.000000
   16    -1.000000    90.000000     0.000000    -1.000000     0.000000     0.000000     0.000000     0.000000
   17    -1.000000   180.000000     0.707107     0.707107     0.000000     0.000000     0.000000     0.000000
   18    -1.000000    90.000000     1.000000     0.000000     0.000000     0.000000     0.000000     0.000000
   19     1.000000   120.000000     0.577350    -0.577350    -0.577350     0.000000     0.000000     0.000000
   20     1.000000   180.000000     0.000000     1.000000     0.000000     0.000000     0.000000     0.000000
   21     1.000000   120.000000     0.577350     0.577350    -0.577350     0.000000     0.000000     0.000000
   22    -1.000000   180.000000     0.000000    -0.707107     0.707107     0.000000     0.000000     0.000000
   23    -1.000000   180.000000     0.707107    -0.707107     0.000000     0.000000     0.000000     0.000000
   24    -1.000000   180.000000     0.707107     0.000000    -0.707107     0.000000     0.000000     0.000000
   25    -1.000000     0.000001     1.000000     0.000000     0.000000     0.500000     0.500000     0.500000
   26    -1.000000   120.000000    -0.577350    -0.577350    -0.577350     0.500000     0.500000     0.500000
   27    -1.000000   120.000000     0.577350     0.577350     0.577350     0.500000     0.500000     0.500000
   28     1.000000    90.000000     0.000000     0.000000    -1.000000     0.500000     0.500000     0.500000
   29     1.000000   180.000000     0.000000     0.707107     0.707107     0.500000     0.500000     0.500000
   30     1.000000    90.000000     0.000000     1.000000     0.000000     0.500000     0.500000     0.500000
   31    -1.000000   180.000000     0.000000     0.000000     1.000000     0.500000     0.500000     0.500000
   32    -1.000000   120.000000    -0.577350     0.577350     0.577350     0.500000     0.500000     0.500000
   33    -1.000000   120.000000    -0.577350     0.577350    -0.577350     0.500000     0.500000     0.500000
   34     1.000000    90.000000     0.000000     0.000000     1.000000     0.500000     0.500000     0.500000
   35     1.000000    90.000000    -1.000000     0.000000     0.000000     0.500000     0.500000     0.500000
   36     1.000000   180.000000     0.707107     0.000000     0.707107     0.500000     0.500000     0.500000
   37    -1.000000   120.000000     0.577350    -0.577350     0.577350     0.500000     0.500000     0.500000
   38    -1.000000   120.000000    -0.577350    -0.577350     0.577350     0.500000     0.500000     0.500000
   39    -1.000000   180.000000     1.000000     0.000000     0.000000     0.500000     0.500000     0.500000
   40     1.000000    90.000000     0.000000    -1.000000     0.000000     0.500000     0.500000     0.500000
   41     1.000000   180.000000     0.707107     0.707107     0.000000     0.500000     0.500000     0.500000
   42     1.000000    90.000000     1.000000     0.000000     0.000000     0.500000     0.500000     0.500000
   43    -1.000000   120.000000     0.577350    -0.577350    -0.577350     0.500000     0.500000     0.500000
   44    -1.000000   180.000000     0.000000     1.000000     0.000000     0.500000     0.500000     0.500000
   45    -1.000000   120.000000     0.577350     0.577350    -0.577350     0.500000     0.500000     0.500000
   46     1.000000   180.000000     0.000000    -0.707107     0.707107     0.500000     0.500000     0.500000
   47     1.000000   180.000000     0.707107    -0.707107     0.000000     0.500000     0.500000     0.500000
   48     1.000000   180.000000     0.707107     0.000000    -0.707107     0.500000     0.500000     0.500000

 Subroutine IBZKPT returns following result:

 Found     29 irreducible k-points:

 Following reciprocal coordinates:
            Coordinates               Weight
  0.000000  0.000000  0.000000      1.000000
  0.125000  0.000000  0.000000      8.000000
  0.250000  0.000000  0.000000      8.000000
  0.375000  0.000000  0.000000      8.000000
  0.500000  0.000000  0.000000      4.000000
  0.125000  0.125000  0.000000      6.000000
  0.250000  0.125000  0.000000     24.000000
  0.375000  0.125000  0.000000     24.000000
  0.500000  0.125000  0.000000     24.000000
 -0.375000  0.125000  0.000000     24.000000
 -0.250000  0.125000  0.000000     24.000000
 -0.125000  0.125000  0.000000     12.000000
  0.250000  0.250000  0.000000      6.000000
  0.375000  0.250000  0.000000     24.000000
  0.500000  0.250000  0.000000     24.000000
 -0.375000  0.250000  0.000000     24.000000
 -0.250000  0.250000  0.000000     12.000000
  0.375000  0.375000  0.000000      6.000000
  0.500000  0.375000  0.000000     24.000000
 -0.375000  0.375000  0.000000     12.000000
  0.500000  0.500000  0.000000      3.000000
  0.375000  0.250000  0.125000     24.000000
  0.500000  0.250000  0.125000     48.000000
 -0.375000  0.250000  0.125000     24.000000
  0.500000  0.375000  0.125000     24.000000
 -0.375000  0.375000  0.125000     48.000000
 -0.250000  0.375000  0.125000     24.000000
 -0.375000  0.500000  0.125000     12.000000
 -0.250000  0.500000  0.250000      6.000000

 Following cartesian coordinates:
            Coordinates               Weight
  0.000000  0.000000  0.000000      1.000000
 -0.017862  0.017862  0.017862      8.000000
 -0.035724  0.035724  0.035724      8.000000
 -0.053586  0.053586  0.053586      8.000000
 -0.071448  0.071448  0.071448      4.000000
  0.000000  0.000000  0.035724      6.000000
 -0.017862  0.017862  0.053586     24.000000
 -0.035724  0.035724  0.071448     24.000000
 -0.053586  0.053586  0.089310     24.000000
  0.071448 -0.071448 -0.035724     24.000000
  0.053586 -0.053586 -0.017862     24.000000
  0.035724 -0.035724  0.000000     12.000000
  0.000000  0.000000  0.071448      6.000000
 -0.017862  0.017862  0.089310     24.000000
 -0.035724  0.035724  0.107172     24.000000
  0.089310 -0.089310 -0.017862     24.000000
  0.071448 -0.071448  0.000000     12.000000
  0.000000  0.000000  0.107172      6.000000
 -0.017862  0.017862  0.125034     24.000000
  0.107172 -0.107172  0.000000     12.000000
  0.000000  0.000000  0.142896      3.000000
 -0.000000  0.035724  0.071448     24.000000
 -0.017862  0.053586  0.089310     48.000000
  0.107172 -0.071448 -0.035724     24.000000
  0.000000  0.035724  0.107172     24.000000
  0.125034 -0.089310 -0.017862     48.000000
  0.107172 -0.071448 -0.000000     24.000000
[...]
   LMONO  =      F    monopole corrections only (constant potential shift)
   LDIPOL =      F    correct potential (dipole corrections)
   IDIPOL =      0    1-x, 2-y, 3-z, 4-all directions
   EPSILON=  1.0000000 bulk dielectric constant

 Exchange correlation treatment:
   GGA     =    PE    GGA type
   VOSKOWN=      0    Vosko Wilk Nusair interpolation
   LHFCALC =     F    Hartree Fock is set to
   LHFONE  =     F    Hartree Fock one center treatment
   AEXX    =    0.0000 exact exchange contribution

 Linear response parameters
   LEPSILON=     F    determine dielectric tensor
   LRPA    =     F    only Hartree local field effects (RPA)
   LNABLA  =     F    use nabla operator in PAW spheres
   LVEL    =     F    velocity operator in full k-point grid
   LINTERFAST=   F  fast interpolation
   KINTER  =     0    interpolate to denser k-point grid
   CSHIFT  =0.1000    complex shift for real part using Kramers Kronig
   OMEGAMAX=  -1.0    maximum frequency
   DEG_THRESHOLD= 0.2000000E-02 threshold for treating states as degnerate
   RTIME   =   -0.100 relaxation time in fs
  (WPLASMAI=    0.000 imaginary part of plasma frequency in eV, 0.658/RTIME)
   DFIELD  = 0.0000000 0.0000000 0.0000000 field for delta impulse in time

 Orbital magnetization related:
   ORBITALMAG=     F  switch on orbital magnetization
   LCHIMAG   =     F  perturbation theory with respect to B field
   DQ        =  0.001000  dq finite difference perturbation B field
   LLRAUG    =     F  two centre corrections for induced B field

 Static calculation
 charge density and potential will be updated during run
 non-spin polarized calculation
 Variant of blocked Davidson
 Davidson routine will perform the subspace rotation
 perform sub-space diagonalisation
    after iterative eigenvector-optimisation
 modified Broyden-mixing scheme, WC =      100.0
 initial mixing is a Kerker type mixing with AMIX =  0.4000 and BMIX =      1.0000
 Hartree-type preconditioning will be used
 using additional bands            4
 reciprocal scheme for non local part
 use partial core corrections
 calculate Harris-corrections to forces
   (improved forces if not selfconsistent)
 use gradient corrections
 use of overlap-Matrix (Vanderbilt PP)
 Gauss-broadening in eV      SIGMA  =   0.05

  energy-cutoff  :      520.00
  volume of cell :       85.68
      direct lattice vectors                 reciprocal lattice vectors
     0.000000000  3.499056056  3.499056056    -0.142895682  0.142895682  0.142895682
     3.499056056  0.000000000  3.499056056     0.142895682 -0.142895682  0.142895682
     3.499056056  3.499056056  0.000000000     0.142895682  0.142895682 -0.142895682

  length of vectors
     4.948412530  4.948412530  4.948412530     0.247502581  0.247502581  0.247502581

 k-points in units of 2pi/SCALE and weight: KPOINTS
   0.00000000  0.00000000  0.00000000       0.002
  -0.01786196  0.01786196  0.01786196       0.016
  -0.03572392  0.03572392  0.03572392       0.016
  -0.05358588  0.05358588  0.05358588       0.016
  -0.07144784  0.07144784  0.07144784       0.008
   0.00000000  0.00000000  0.03572392       0.012
  -0.01786196  0.01786196  0.05358588       0.047
  -0.03572392  0.03572392  0.07144784       0.047
  -0.05358588  0.05358588  0.08930980       0.047
   0.07144784 -0.07144784 -0.03572392       0.047
   0.05358588 -0.05358588 -0.01786196       0.047
   0.03572392 -0.03572392  0.00000000       0.023
   0.00000000  0.00000000  0.07144784       0.012
  -0.01786196  0.01786196  0.08930980       0.047
  -0.03572392  0.03572392  0.10717176       0.047
   0.08930980 -0.08930980 -0.01786196       0.047
   0.07144784 -0.07144784  0.00000000       0.023
   0.00000000  0.00000000  0.10717176       0.012
  -0.01786196  0.01786196  0.12503372       0.047
   0.10717176 -0.10717176  0.00000000       0.023
   0.00000000  0.00000000  0.14289568       0.006
  -0.00000000  0.03572392  0.07144784       0.047
  -0.01786196  0.05358588  0.08930980       0.094
   0.10717176 -0.07144784 -0.03572392       0.047
   0.00000000  0.03572392  0.10717176       0.047
   0.12503372 -0.08930980 -0.01786196       0.094
   0.10717176 -0.07144784 -0.00000000       0.047
   0.14289568 -0.10717176 -0.00000000       0.023
   0.14289568 -0.07144784  0.00000000       0.012

 k-points in reciprocal lattice and weights: KPOINTS
   0.00000000  0.00000000  0.00000000       0.002
   0.12500000  0.00000000  0.00000000       0.016
   0.25000000  0.00000000  0.00000000       0.016
   0.37500000  0.00000000  0.00000000       0.016
   0.50000000  0.00000000  0.00000000       0.008
   0.12500000  0.12500000  0.00000000       0.012
   0.25000000  0.12500000  0.00000000       0.047
   0.37500000  0.12500000  0.00000000       0.047
   0.50000000  0.12500000  0.00000000       0.047
  -0.37500000  0.12500000  0.00000000       0.047
  -0.25000000  0.12500000  0.00000000       0.047
  -0.12500000  0.12500000  0.00000000       0.023
   0.25000000  0.25000000  0.00000000       0.012
   0.37500000  0.25000000  0.00000000       0.047
   0.50000000  0.25000000  0.00000000       0.047
  -0.37500000  0.25000000  0.00000000       0.047
  -0.25000000  0.25000000  0.00000000       0.023
   0.37500000  0.37500000  0.00000000       0.012
   0.50000000  0.37500000  0.00000000       0.047
  -0.37500000  0.37500000  0.00000000       0.023
   0.50000000  0.50000000  0.00000000       0.006
   0.37500000  0.25000000  0.12500000       0.047
   0.50000000  0.25000000  0.12500000       0.094
  -0.37500000  0.25000000  0.12500000       0.047
   0.50000000  0.37500000  0.12500000       0.047
  -0.37500000  0.37500000  0.12500000       0.094
  -0.25000000  0.37500000  0.12500000       0.047
  -0.37500000  0.50000000  0.12500000       0.023
  -0.25000000  0.50000000  0.25000000       0.012

 position of ions in fractional coordinates (direct lattice)
   0.25000015  0.25000015  0.25000015
   0.00000000  0.00000000  0.00000000
   0.49999884  0.49999884  0.49999884
   0.75000044  0.75000044  0.75000044

 position of ions in cartesian coordinates  (Angst):
   1.74952905  1.74952905  1.74952905
   0.00000000  0.00000000  0.00000000
   3.49904791  3.49904791  3.49904791
   5.24858714  5.24858714  5.24858714

 k-point  1 :   0.0000 0.0000 0.0000  plane waves:    2277
 k-point  2 :   0.1250 0.0000 0.0000  plane waves:    2304
 k-point  3 :   0.2500 0.0000 0.0000  plane waves:    2304
 k-point  4 :   0.3750 0.0000 0.0000  plane waves:    2319
 k-point  5 :   0.5000 0.0000 0.0000  plane waves:    2332
 k-point  6 :   0.1250 0.1250 0.0000  plane waves:    2305
 k-point  7 :   0.2500 0.1250 0.0000  plane waves:    2299
 k-point  8 :   0.3750 0.1250 0.0000  plane waves:    2305
 k-point  9 :   0.5000 0.1250 0.0000  plane waves:    2312
 k-point 10 :  -0.3750 0.1250 0.0000  plane waves:    2314
 k-point 11 :  -0.2500 0.1250 0.0000  plane waves:    2312
 k-point 12 :  -0.1250 0.1250 0.0000  plane waves:    2301
 k-point 13 :   0.2500 0.2500 0.0000  plane waves:    2293
 k-point 14 :   0.3750 0.2500 0.0000  plane waves:    2318
 k-point 15 :   0.5000 0.2500 0.0000  plane waves:    2315
 k-point 16 :  -0.3750 0.2500 0.0000  plane waves:    2315
 k-point 17 :  -0.2500 0.2500 0.0000  plane waves:    2305
 k-point 18 :   0.3750 0.3750 0.0000  plane waves:    2321
 k-point 19 :   0.5000 0.3750 0.0000  plane waves:    2313
 k-point 20 :  -0.3750 0.3750 0.0000  plane waves:    2319
 k-point 21 :   0.5000 0.5000 0.0000  plane waves:    2298
 k-point 22 :   0.3750 0.2500 0.1250  plane waves:    2305
 k-point 23 :   0.5000 0.2500 0.1250  plane waves:    2308
 k-point 24 :  -0.3750 0.2500 0.1250  plane waves:    2310
 k-point 25 :   0.5000 0.3750 0.1250  plane waves:    2297
 k-point 26 :  -0.3750 0.3750 0.1250  plane waves:    2301
 k-point 27 :  -0.2500 0.3750 0.1250  plane waves:    2298
 k-point 28 :  -0.3750 0.5000 0.1250  plane waves:    2302
 k-point 29 :  -0.2500 0.5000 0.2500  plane waves:    2328

 maximum and minimum number of plane-waves per node :       345      317

 maximum number of plane-waves:      2332
 maximum index in each direction:
   IXMAX=    9   IYMAX=    9   IZMAX=    9
   IXMIN=   -9   IYMIN=   -9   IZMIN=   -9

 parallel 3D FFT for wavefunctions:
    minimum data exchange during FFTs selected (reduces bandwidth)
 parallel 3D FFT for charge:
    minimum data exchange during FFTs selected (reduces bandwidth)

 Broyden mixing: mesh for mixing (old mesh)
   NGX = 19   NGY = 19   NGZ = 19
  (NGX  = 80   NGY  = 80   NGZ  = 80)
  gives a total of   6859 points

 initial charge density was supplied:
 charge density of overlapping atoms calculated
 number of electron      28.0000000 magnetization
 keeping initial charge density in first step

 Maximum index for augmentation-charges         4559 (set IRDMAX)

 First call to EWALD:  gamma=   0.402
 Maximum number of real-space cells 3x 3x 3
 Maximum number of reciprocal cells 3x 3x 3

--------------------------------------- Iteration      1(   1)  ---------------------------------------

 eigenvalue-minimisations  :  1044
 total energy-change (2. order) : 0.2309852E+03  (-0.1423111E+04)
 number of electron      28.0000000 magnetization
 augmentation part       28.0000000 magnetization

 Free energy of the ion-electron system (eV)
  alpha Z        PSCENC =        56.58729684
  Ewald energy   TEWEN  =     -1850.82033200
  -Hartree energ DENC   =      -880.85419655
  -exchange      EXHF   =         0.00000000
  -V(xc)+E(xc)   XCENC  =        98.44323494
  PAW double counting   =      2337.22285842    -2427.02081637
  entropy T*S    EENTRO =        -0.00227550
  eigenvalues    EBANDS =      -233.35877576
  atomic energy  EATOM  =      3130.78817564
  Solvation  Ediel_sol  =         0.00000000
  free energy    TOTEN  =       230.98516966 eV

  energy without entropy =      230.98744516  energy(sigma->0) =      230.98630741

[...]

 eigenvalue-minimisations  :  1056
 total energy-change (2. order) :-0.2211483E+03  (-0.2176987E+03)
 number of electron      28.0000000 magnetization
 augmentation part       28.0000000 magnetization

[...]

 Broyden mixing:
  rms(total) = 0.20078E+00    rms(broyden)= 0.20055E+00
  rms(prec ) = 0.55148E+00
  weight for this iteration     100.00

[...]

 eigenvalues of (default mixing * dielectric matrix)
  average eigenvalue GAMMA=   1.9624
  1.9624

[...]

 eigenvalue-minimisations  :   716
 total energy-change (2. order) :-0.3005648E-06  (-0.5792769E-09)
 number of electron      28.0000012 magnetization
 augmentation part       12.2350182 magnetization

[...]

 Broyden mixing:
  rms(total) = 0.16931E-05    rms(broyden)= 0.16911E-05
  rms(prec ) = 0.38390E-05
  weight for this iteration     100.00

 eigenvalues of (default mixing * dielectric matrix)
  average eigenvalue GAMMA=   1.8224
  2.9235  2.6961  2.3587  2.3587  2.0520  1.4669  0.9758  0.9758  1.2851  1.1310

[...]

--------------------------------------- Iteration      1(  16)  ---------------------------------------

 eigenvalue-minimisations  :   614
 total energy-change (2. order) : 0.1286480E-08  (-0.9042450E-10)
 number of electron      28.0000012 magnetization
 augmentation part       12.2350148 magnetization

 Free energy of the ion-electron system (eV)
  alpha Z        PSCENC =        56.58729684
  Ewald energy   TEWEN  =     -1850.82033200
  -Hartree energ DENC   =      -871.62060231
  -exchange      EXHF   =         0.00000000
  -V(xc)+E(xc)   XCENC  =        98.11133725
  PAW double counting   =      2475.53139502    -2568.88652235
  entropy T*S    EENTRO =        -0.00000000
  eigenvalues    EBANDS =      -480.71423936
  atomic energy  EATOM  =      3130.78817564
  Solvation  Ediel_sol  =         0.00000000
  free energy    TOTEN  =       -11.02349128 eV

  energy without entropy =      -11.02349127  energy(sigma->0) =      -11.02349128

 average (electrostatic) potential at core
  the test charge radii are     1.0856  0.7079  0.9254
  (the norm of the test charge is              1.0000)
       1-106.2703       2 -62.1206       3 -62.1206       4 -46.7219

 E-fermi :   3.8190     XC(G=0):  -8.5901     alpha+bet :-10.0871

 k-point     1 :       0.0000    0.0000    0.0000
  band No.  band energies     occupation
      1     -43.0359      2.00000
      2     -43.0319      2.00000
      3     -20.9224      2.00000
      4     -20.9224      2.00000
      5     -20.9224      2.00000
      6     -18.0928      2.00000
      7     -18.0928      2.00000
      8     -18.0928      2.00000
      9     -18.0820      2.00000
     10     -18.0820      2.00000
     11      -6.7582      2.00000
     12       3.6416      2.00000
     13       3.6417      2.00000
     14       3.6417      2.00000
     15       4.0678      0.00000
     16       6.2212      0.00000
     17       6.2213      0.00000
     18       6.2213      0.00000

[...]

 k-point    29 :      -0.2500    0.5000    0.2500
  band No.  band energies     occupation
      1     -43.0339      2.00000
      2     -43.0339      2.00000
      3     -20.9237      2.00000
      4     -20.9237      2.00000
      5     -20.9237      2.00000
      6     -18.0902      2.00000
      7     -18.0902      2.00000
      8     -18.0875      2.00000
      9     -18.0828      2.00000
     10     -18.0802      2.00000
     11      -6.2496      2.00000
     12       1.1575      2.00000
     13       1.1575      2.00000
     14       1.3231      2.00000
     15       6.4386      0.00000
     16       6.6255      0.00000
     17       7.8709      0.00000
     18       7.8709      0.00000

 soft charge-density along one line, spin component           1
         0         1         2         3         4         5         6         7         8         9
 total charge-density along one line

------------------------ aborting loop because EDIFF is reached ----------------------------------------

  FORCE on cell =-STRESS in cart. coord.  units (eV):
  Direction    XX          YY          ZZ          XY          YZ          ZX
  Alpha Z    56.58730    56.58730    56.58730
  Ewald    -616.94047  -616.94047  -616.94047     0.00058     0.00058     0.00058
  Hartree   290.54023   290.54023   290.54023     0.00014     0.00014     0.00014
  E(xc)    -137.61105  -137.61105  -137.61105     0.00003     0.00003     0.00003
  Local    -127.29553  -127.29553  -127.29553    -0.00076    -0.00076    -0.00076
  n-local    52.68820    52.04213    52.23707     2.08478    -1.55594     0.88931
  augment   212.24451   212.24451   212.24451     0.00010     0.00010     0.00010
  Kinetic   271.69891   271.09308   267.71435     2.91036    -1.58221     1.26083
  Fock        0.00000     0.00000     0.00000     0.00000     0.00000     0.00000
  Total       0.01624     0.01624     0.01624     0.00000    -0.00000     0.00000
  in kB       0.30364     0.30364     0.30364     0.00000    -0.00000     0.00000

 VOLUME and BASIS-vectors are now :
  energy-cutoff  :      520.00
  volume of cell :       85.68
      direct lattice vectors                 reciprocal lattice vectors
     0.000000000  3.499056056  3.499056056    -0.142895682  0.142895682  0.142895682
     3.499056056  0.000000000  3.499056056     0.142895682 -0.142895682  0.142895682
     3.499056056  3.499056056  0.000000000     0.142895682  0.142895682 -0.142895682

  length of vectors
     4.948412530  4.948412530  4.948412530     0.247502581  0.247502581  0.247502581

 FORCES acting on ions
    electron-ion (+dipol)            ewald-force                    non-local-force                 convergence-correction
   -.404E-03 -.404E-03 -.301E-03   -.172E-03 -.172E-03 -.172E-03   -.794E-21 -.159E-21 -.212E-21   0.666E-08 0.666E-08 -.340E-08
   0.202E-03 0.202E-03 0.215E-03   0.258E-04 0.258E-04 0.258E-04   0.867E-18 -.217E-18 0.651E-18   0.140E-07 0.140E-07 0.140E-07
   0.342E-02 0.342E-02 0.343E-02   0.507E-03 0.507E-03 0.507E-03   -.434E-18 0.217E-18 0.000E+00   -.254E-07 -.254E-07 -.254E-07
   -.387E-03 -.387E-03 -.410E-03   -.361E-03 -.361E-03 -.361E-03   0.424E-20 0.254E-20 -.339E-20   0.240E-07 0.240E-07 0.293E-07
   0.283E-02 0.283E-02 0.294E-02   0.104E-14 0.772E-15 0.487E-16   0.437E-18 0.238E-20 0.647E-18   0.193E-07 0.193E-07 0.146E-07

 POSITION                                       TOTAL-FORCE (eV/Angst)
      1.74953      1.74953      1.74953        -0.000000     -0.000000      0.000000
      0.00000      0.00000      0.00000        -0.000000     -0.000000     -0.000000
      3.49905      3.49905      3.49905         0.000000      0.000000      0.000000
      5.24859      5.24859      5.24859         0.000000      0.000000      0.000000
    total drift:                                0.002832      0.002832      0.002938

  FREE ENERGIE OF THE ION-ELECTRON SYSTEM (eV)
  free  energy   TOTEN  =       -11.02349128 eV

  energy  without entropy=      -11.02349127  energy(sigma->0) =      -11.02349128