 vasp.5.4.4.18Apr17-6-g9f103f2a35 (build Jun 23 2019 17:35:09) complex

 executed on             LinuxIFC date 2020.01.15  15:37:18

 INCAR:
 POTCAR:    PAW_PBE Bi_d 06Sep2000
 POTCAR:    PAW_PBE K_sv 06Sep2000
 POTCAR:    PAW_PBE Na_pv 19Sep2006

 POTCAR:    PAW_PBE Bi_d 06Sep2000
   VRHFIN =Bi:

   TITEL  = PAW_PBE Bi_d 06Sep2000
   POMASS =  208.980; ZVAL   =   15.000    mass and valenz
   ENMAX  =  242.839; ENMIN  =  182.129 eV

 POTCAR:    PAW_PBE K_sv 06Sep2000
   VRHFIN =K:  3s3p4s

   TITEL  = PAW_PBE K_sv 06Sep2000
   POMASS =   39.098; ZVAL   =    9.000    mass and valenz
   ENMAX  =  259.264; ENMIN  =  194.448 eV

 POTCAR:    PAW_PBE Na_pv 19Sep2006
   VRHFIN =Na: p6s1

   TITEL  = PAW_PBE Na_pv 19Sep2006
   POMASS =   22.990; ZVAL   =    7.000    mass and valenz
   ENMAX  =  259.561; ENMIN  =  194.671 eV

  PAW_PBE Bi_d 06Sep2000                :
  PAW_PBE K_sv 06Sep2000                :
  PAW_PBE Na_pv 19Sep2006               :

 POSCAR: Na K Bi
  positions in direct lattice
  velocities in cartesian coordinates
 exchange correlation table for  LEXCH =        8
   RHO(1)=    0.500       N(1)  =     2000
   RHO(2)=  100.500       N(2)  =     4000

 ion  position               nearest neighbor table
   1  0.250  0.250  0.250-
   2  0.750  0.750  0.750-
   3  0.000  0.000  0.000-
   4  0.500  0.500  0.500-

  LATTYP: Found a face centered cubic cell.
 ALAT       =     7.9631776941

  Lattice vectors:

 A1 = (   0.0000000000,   3.9815888470,   3.9815888470)
 A2 = (   3.9815888470,   0.0000000000,   3.9815888470)
 A3 = (   3.9815888470,   3.9815888470,   0.0000000000)

Analysis of symmetry for initial positions (statically):
 Subroutine PRICEL returns:
 Original cell was already a primitive cell.

 Routine SETGRP: Setting up the symmetry group for a
 face centered cubic supercell.

 Subroutine GETGRP returns: Found 48 space group operations
 (whereof 24 operations were pure point group operations)
 out of a pool of 48 trial point group operations.

The static configuration has the point symmetry T_d .
 The point group associated with its full space group is O_h .

Analysis of symmetry for dynamics (positions and initial velocities):
 Subroutine PRICEL returns:
 Original cell was already a primitive cell.

 Routine SETGRP: Setting up the symmetry group for a
 face centered cubic supercell.

 Subroutine GETGRP returns: Found 48 space group operations
 (whereof 24 operations were pure point group operations)
 out of a pool of 48 trial point group operations.

The dynamic configuration has the point symmetry T_d .
 The point group associated with its full space group is O_h .

 Subroutine INISYM returns: Found 48 space group operations
 (whereof 24 operations are pure point group operations),
 and found     1 'primitive' translations

 KPOINTS: KPOINTS

Automatic generation of k-mesh.
Space group operators:
 irot       det(A)        alpha          n_x          n_y          n_z        tau_x        tau_y        tau_z
    1     1.000000     0.000000     1.000000     0.000000     0.000000     0.000000     0.000000     0.000000
    2     1.000000   120.000000    -0.577350    -0.577350    -0.577350     0.000000     0.000000     0.000000
    3     1.000000   120.000000     0.577350     0.577350     0.577350     0.000000     0.000000     0.000000
    4    -1.000000    90.000000     0.000000     0.000000    -1.000000     0.000000     0.000000     0.000000
    5    -1.000000   180.000000     0.000000     0.707107     0.707107     0.000000     0.000000     0.000000
    6    -1.000000    90.000000     0.000000     1.000000     0.000000     0.000000     0.000000     0.000000
    7     1.000000   180.000000     0.000000     0.000000     1.000000     0.000000     0.000000     0.000000
    8     1.000000   120.000000    -0.577350     0.577350     0.577350     0.000000     0.000000     0.000000
    9     1.000000   120.000000    -0.577350     0.577350    -0.577350     0.000000     0.000000     0.000000
   10    -1.000000    90.000000     0.000000     0.000000     1.000000     0.000000     0.000000     0.000000
   11    -1.000000    90.000000    -1.000000     0.000000     0.000000     0.000000     0.000000     0.000000
   12    -1.000000   180.000000     0.707107     0.000000     0.707107     0.000000     0.000000     0.000000
   13     1.000000   120.000000     0.577350    -0.577350     0.577350     0.000000     0.000000     0.000000
   14     1.000000   120.000000    -0.577350    -0.577350     0.577350     0.000000     0.000000     0.000000
   15     1.000000   180.000000     1.000000     0.000000     0.000000     0.000000     0.000000     0.000000
   16    -1.000000    90.000000     0.000000    -1.000000     0.000000     0.000000     0.000000     0.000000
   17    -1.000000   180.000000     0.707107     0.707107     0.000000     0.000000     0.000000     0.000000
   18    -1.000000    90.000000     1.000000     0.000000     0.000000     0.000000     0.000000     0.000000
   19     1.000000   120.000000     0.577350    -0.577350    -0.577350     0.000000     0.000000     0.000000
   20     1.000000   180.000000     0.000000     1.000000     0.000000     0.000000     0.000000     0.000000
   21     1.000000   120.000000     0.577350     0.577350    -0.577350     0.000000     0.000000     0.000000
   22    -1.000000   180.000000     0.000000    -0.707107     0.707107     0.000000     0.000000     0.000000
   23    -1.000000   180.000000     0.707107    -0.707107     0.000000     0.000000     0.000000     0.000000
   24    -1.000000   180.000000     0.707107     0.000000    -0.707107     0.000000     0.000000     0.000000
   25    -1.000000     0.000000     1.000000     0.000000     0.000000     0.500000     0.500000     0.500000
   26    -1.000000   120.000000    -0.577350    -0.577350    -0.577350     0.500000     0.500000     0.500000
   27    -1.000000   120.000000     0.577350     0.577350     0.577350     0.500000     0.500000     0.500000
   28     1.000000    90.000000     0.000000     0.000000    -1.000000     0.500000     0.500000     0.500000
   29     1.000000   180.000000     0.000000     0.707107     0.707107     0.500000     0.500000     0.500000
   30     1.000000    90.000000     0.000000     1.000000     0.000000     0.500000     0.500000     0.500000
   31    -1.000000   180.000000     0.000000     0.000000     1.000000     0.500000     0.500000     0.500000
   32    -1.000000   120.000000    -0.577350     0.577350     0.577350     0.500000     0.500000     0.500000
   33    -1.000000   120.000000    -0.577350     0.577350    -0.577350     0.500000     0.500000     0.500000
   34     1.000000    90.000000     0.000000     0.000000     1.000000     0.500000     0.500000     0.500000
   35     1.000000    90.000000    -1.000000     0.000000     0.000000     0.500000     0.500000     0.500000
   36     1.000000   180.000000     0.707107     0.000000     0.707107     0.500000     0.500000     0.500000
   37    -1.000000   120.000000     0.577350    -0.577350     0.577350     0.500000     0.500000     0.500000
   38    -1.000000   120.000000    -0.577350    -0.577350     0.577350     0.500000     0.500000     0.500000
   39    -1.000000   180.000000     1.000000     0.000000     0.000000     0.500000     0.500000     0.500000
   40     1.000000    90.000000     0.000000    -1.000000     0.000000     0.500000     0.500000     0.500000
   41     1.000000   180.000000     0.707107     0.707107     0.000000     0.500000     0.500000     0.500000
   42     1.000000    90.000000     1.000000     0.000000     0.000000     0.500000     0.500000     0.500000
   43    -1.000000   120.000000     0.577350    -0.577350    -0.577350     0.500000     0.500000     0.500000
   44    -1.000000   180.000000     0.000000     1.000000     0.000000     0.500000     0.500000     0.500000
   45    -1.000000   120.000000     0.577350     0.577350    -0.577350     0.500000     0.500000     0.500000
   46     1.000000   180.000000     0.000000    -0.707107     0.707107     0.500000     0.500000     0.500000
   47     1.000000   180.000000     0.707107    -0.707107     0.000000     0.500000     0.500000     0.500000
   48     1.000000   180.000000     0.707107     0.000000    -0.707107     0.500000     0.500000     0.500000

 Subroutine IBZKPT returns following result:

 Found     29 irreducible k-points:

 Following reciprocal coordinates:
            Coordinates               Weight
  0.000000  0.000000  0.000000      1.000000
  0.125000  0.000000  0.000000      8.000000
  0.250000  0.000000  0.000000      8.000000
  0.375000  0.000000  0.000000      8.000000
  0.500000  0.000000  0.000000      4.000000
  0.125000  0.125000  0.000000      6.000000
  0.250000  0.125000  0.000000     24.000000
  0.375000  0.125000  0.000000     24.000000
  0.500000  0.125000  0.000000     24.000000
 -0.375000  0.125000  0.000000     24.000000
 -0.250000  0.125000  0.000000     24.000000
 -0.125000  0.125000  0.000000     12.000000
  0.250000  0.250000  0.000000      6.000000
  0.375000  0.250000  0.000000     24.000000
  0.500000  0.250000  0.000000     24.000000
 -0.375000  0.250000  0.000000     24.000000
 -0.250000  0.250000  0.000000     12.000000
  0.375000  0.375000  0.000000      6.000000
  0.500000  0.375000  0.000000     24.000000
 -0.375000  0.375000  0.000000     12.000000
  0.500000  0.500000  0.000000      3.000000
  0.375000  0.250000  0.125000     24.000000
  0.500000  0.250000  0.125000     48.000000
 -0.375000  0.250000  0.125000     24.000000
  0.500000  0.375000  0.125000     24.000000
 -0.375000  0.375000  0.125000     48.000000
 -0.250000  0.375000  0.125000     24.000000
 -0.375000  0.500000  0.125000     12.000000
 -0.250000  0.500000  0.250000      6.000000

 Following cartesian coordinates:
            Coordinates               Weight
  0.000000  0.000000  0.000000      1.000000
 -0.015697  0.015697  0.015697      8.000000
 -0.031395  0.031395  0.031395      8.000000
 -0.047092  0.047092  0.047092      8.000000
 -0.062789  0.062789  0.062789      4.000000
  0.000000  0.000000  0.031395      6.000000
 -0.015697  0.015697  0.047092     24.000000
 -0.031395  0.031395  0.062789     24.000000
 -0.047092  0.047092  0.078486     24.000000
  0.062789 -0.062789 -0.031395     24.000000
  0.047092 -0.047092 -0.015697     24.000000
  0.031395 -0.031395  0.000000     12.000000
  0.000000  0.000000  0.062789      6.000000
 -0.015697  0.015697  0.078486     24.000000
 -0.031395  0.031395  0.094184     24.000000
  0.078486 -0.078486 -0.015697     24.000000
  0.062789 -0.062789  0.000000     12.000000
  0.000000  0.000000  0.094184      6.000000
 -0.015697  0.015697  0.109881     24.000000
  0.094184 -0.094184  0.000000     12.000000
  0.000000  0.000000  0.125578      3.000000
 -0.000000  0.031395  0.062789     24.000000
 -0.015697  0.047092  0.078486     48.000000
  0.094184 -0.062789 -0.031395     24.000000
  0.000000  0.031395  0.094184     24.000000
  0.109881 -0.078486 -0.015697     48.000000
  0.094184 -0.062789  0.000000     24.000000
  0.125578 -0.094184 -0.000000     12.000000
  0.125578 -0.062789  0.000000      6.000000

 SYSTEM =  unknown system
 POSCAR =  Na K Bi

 Startparameter for this run:
[...]
   LHFCALC =     F    Hartree Fock is set to
   LHFONE  =     F    Hartree Fock one center treatment
   AEXX    =    0.0000 exact exchange contribution

 Linear response parameters
   LEPSILON=     F    determine dielectric tensor
   LRPA    =     F    only Hartree local field effects (RPA)
   LNABLA  =     F    use nabla operator in PAW spheres
   LVEL    =     F    velocity operator in full k-point grid
   LINTERFAST=   F  fast interpolation
   KINTER  =     0    interpolate to denser k-point grid
   CSHIFT  =0.1000    complex shift for real part using Kramers Kronig
   OMEGAMAX=  -1.0    maximum frequency
   DEG_THRESHOLD= 0.2000000E-02 threshold for treating states as degnerate
   RTIME   =   -0.100 relaxation time in fs
  (WPLASMAI=    0.000 imaginary part of plasma frequency in eV, 0.658/RTIME)
   DFIELD  = 0.0000000 0.0000000 0.0000000 field for delta impulse in time

 Orbital magnetization related:
   ORBITALMAG=     F  switch on orbital magnetization
   LCHIMAG   =     F  perturbation theory with respect to B field
   DQ        =  0.001000  dq finite difference perturbation B field
   LLRAUG    =     F  two centre corrections for induced B field

 Static calculation
 charge density and potential will be updated during run
 non-spin polarized calculation
 Variant of blocked Davidson
 Davidson routine will perform the subspace rotation
 perform sub-space diagonalisation
    after iterative eigenvector-optimisation
 modified Broyden-mixing scheme, WC =      100.0
 initial mixing is a Kerker type mixing with AMIX =  0.4000 and BMIX =      1.0000
 Hartree-type preconditioning will be used
 using additional bands            4
 reciprocal scheme for non local part
 use partial core corrections
 calculate Harris-corrections to forces
   (improved forces if not selfconsistent)
 use gradient corrections
 use of overlap-Matrix (Vanderbilt PP)
 Gauss-broadening in eV      SIGMA  =   0.05

  energy-cutoff  :      520.00
  volume of cell :      126.24
      direct lattice vectors                 reciprocal lattice vectors
     0.000000000  3.981588847  3.981588847    -0.125578009  0.125578009  0.125578009
     3.981588847  0.000000000  3.981588847     0.125578009 -0.125578009  0.125578009
     3.981588847  3.981588847  0.000000000     0.125578009  0.125578009 -0.125578009

  length of vectors
     5.630816947  5.630816947  5.630816947     0.217507492  0.217507492  0.217507492

 k-points in units of 2pi/SCALE and weight: KPOINTS
   0.00000000  0.00000000  0.00000000       0.002
  -0.01569725  0.01569725  0.01569725       0.016
  -0.03139450  0.03139450  0.03139450       0.016
  -0.04709175  0.04709175  0.04709175       0.016
  -0.06278900  0.06278900  0.06278900       0.008
   0.00000000  0.00000000  0.03139450       0.012
  -0.01569725  0.01569725  0.04709175       0.047
  -0.03139450  0.03139450  0.06278900       0.047
  -0.04709175  0.04709175  0.07848626       0.047
   0.06278900 -0.06278900 -0.03139450       0.047
   0.04709175 -0.04709175 -0.01569725       0.047
   0.03139450 -0.03139450  0.00000000       0.023
   0.00000000  0.00000000  0.06278900       0.012
  -0.01569725  0.01569725  0.07848626       0.047
  -0.03139450  0.03139450  0.09418351       0.047
   0.07848626 -0.07848626 -0.01569725       0.047
   0.06278900 -0.06278900  0.00000000       0.023
   0.00000000  0.00000000  0.09418351       0.012
  -0.01569725  0.01569725  0.10988076       0.047
   0.09418351 -0.09418351  0.00000000       0.023
   0.00000000  0.00000000  0.12557801       0.006
  -0.00000000  0.03139450  0.06278900       0.047
  -0.01569725  0.04709175  0.07848626       0.094
   0.09418351 -0.06278900 -0.03139450       0.047
   0.00000000  0.03139450  0.09418351       0.047
   0.10988076 -0.07848626 -0.01569725       0.094
   0.09418351 -0.06278900  0.00000000       0.047
   0.12557801 -0.09418351 -0.00000000       0.023
   0.12557801 -0.06278900  0.00000000       0.012

 k-points in reciprocal lattice and weights: KPOINTS
   0.00000000  0.00000000  0.00000000       0.002
   0.12500000  0.00000000  0.00000000       0.016
   0.25000000  0.00000000  0.00000000       0.016
   0.37500000  0.00000000  0.00000000       0.016
   0.50000000  0.00000000  0.00000000       0.008
   0.12500000  0.12500000  0.00000000       0.012
   0.25000000  0.12500000  0.00000000       0.047
   0.37500000  0.12500000  0.00000000       0.047
   0.50000000  0.12500000  0.00000000       0.047
  -0.37500000  0.12500000  0.00000000       0.047
  -0.25000000  0.12500000  0.00000000       0.047
  -0.12500000  0.12500000  0.00000000       0.023
   0.25000000  0.25000000  0.00000000       0.012
   0.37500000  0.25000000  0.00000000       0.047
   0.50000000  0.25000000  0.00000000       0.047
  -0.37500000  0.25000000  0.00000000       0.047
  -0.25000000  0.25000000  0.00000000       0.023
   0.37500000  0.37500000  0.00000000       0.012
   0.50000000  0.37500000  0.00000000       0.047
  -0.37500000  0.37500000  0.00000000       0.023
   0.50000000  0.50000000  0.00000000       0.006
   0.37500000  0.25000000  0.12500000       0.047
   0.50000000  0.25000000  0.12500000       0.094
  -0.37500000  0.25000000  0.12500000       0.047
   0.50000000  0.37500000  0.12500000       0.047
  -0.37500000  0.37500000  0.12500000       0.094
  -0.25000000  0.37500000  0.12500000       0.047
  -0.37500000  0.50000000  0.12500000       0.023
  -0.25000000  0.50000000  0.25000000       0.012

 position of ions in fractional coordinates (direct lattice)
   0.24999994  0.24999994  0.24999994
   0.74999981  0.74999981  0.74999981
   0.00000000  0.00000000  0.00000000
   0.49999987  0.49999987  0.49999987

 position of ions in cartesian coordinates  (Angst):
   1.99079392  1.99079392  1.99079392
   5.97238175  5.97238175  5.97238175
   0.00000000  0.00000000  0.00000000
   3.98158783  3.98158783  3.98158783

 k-point  1 :   0.0000 0.0000 0.0000  plane waves:    3479
 k-point  2 :   0.1250 0.0000 0.0000  plane waves:    3416
 k-point  3 :   0.2500 0.0000 0.0000  plane waves:    3398
 k-point  4 :   0.3750 0.0000 0.0000  plane waves:    3410
 k-point  5 :   0.5000 0.0000 0.0000  plane waves:    3426
 k-point  6 :   0.1250 0.1250 0.0000  plane waves:    3419
 k-point  7 :   0.2500 0.1250 0.0000  plane waves:    3415
 k-point  8 :   0.3750 0.1250 0.0000  plane waves:    3396
 k-point  9 :   0.5000 0.1250 0.0000  plane waves:    3393
 k-point 10 :  -0.3750 0.1250 0.0000  plane waves:    3401
 k-point 11 :  -0.2500 0.1250 0.0000  plane waves:    3405
 k-point 12 :  -0.1250 0.1250 0.0000  plane waves:    3435
 k-point 13 :   0.2500 0.2500 0.0000  plane waves:    3399
 k-point 14 :   0.3750 0.2500 0.0000  plane waves:    3412
 k-point 15 :   0.5000 0.2500 0.0000  plane waves:    3401
 k-point 16 :  -0.3750 0.2500 0.0000  plane waves:    3398
 k-point 17 :  -0.2500 0.2500 0.0000  plane waves:    3398
 k-point 18 :   0.3750 0.3750 0.0000  plane waves:    3391
 k-point 19 :   0.5000 0.3750 0.0000  plane waves:    3387
 k-point 20 :  -0.3750 0.3750 0.0000  plane waves:    3414
 k-point 21 :   0.5000 0.5000 0.0000  plane waves:    3378
 k-point 22 :   0.3750 0.2500 0.1250  plane waves:    3409
 k-point 23 :   0.5000 0.2500 0.1250  plane waves:    3402
 k-point 24 :  -0.3750 0.2500 0.1250  plane waves:    3390
 k-point 25 :   0.5000 0.3750 0.1250  plane waves:    3395
 k-point 26 :  -0.3750 0.3750 0.1250  plane waves:    3385
 k-point 27 :  -0.2500 0.3750 0.1250  plane waves:    3389
 k-point 28 :  -0.3750 0.5000 0.1250  plane waves:    3382
 k-point 29 :  -0.2500 0.5000 0.2500  plane waves:    3380

 maximum and minimum number of plane-waves per node :       506      470

 maximum number of plane-waves:      3479
 maximum index in each direction:
   IXMAX=   10   IYMAX=   10   IZMAX=   10
   IXMIN=  -10   IYMIN=  -10   IZMIN=  -10

 parallel 3D FFT for wavefunctions:
    minimum data exchange during FFTs selected (reduces bandwidth)
 parallel 3D FFT for charge:
    minimum data exchange during FFTs selected (reduces bandwidth)

 Broyden mixing: mesh for mixing (old mesh)
   NGX = 21   NGY = 21   NGZ = 21
  (NGX  = 84   NGY  = 84   NGZ  = 84)
  gives a total of   9261 points

 initial charge density was supplied:
 charge density of overlapping atoms calculated
 number of electron      38.0000000 magnetization
 keeping initial charge density in first step

 Maximum index for augmentation-charges         3727 (set IRDMAX)

 First call to EWALD:  gamma=   0.353
 Maximum number of real-space cells 3x 3x 3
 Maximum number of reciprocal cells 3x 3x 3

--------------------------------------- Iteration      1(   1)  ---------------------------------------

 eigenvalue-minimisations  :  1342
 total energy-change (2. order) : 0.3840692E+03  (-0.2001912E+04)
 number of electron      38.0000000 magnetization
 augmentation part       38.0000000 magnetization

 Free energy of the ion-electron system (eV)
  alpha Z        PSCENC =       102.11721323
  Ewald energy   TEWEN  =     -2524.56922660
  -Hartree energ DENC   =     -1246.18677078
  -exchange      EXHF   =         0.00000000
  -V(xc)+E(xc)   XCENC  =       133.51261103
  PAW double counting   =      3274.07194199    -3416.58699786
  entropy T*S    EENTRO =        -0.00217390
  eigenvalues    EBANDS =      -204.57720779
  atomic energy  EATOM  =      4266.28978799
  Solvation  Ediel_sol  =         0.00000000
  free energy    TOTEN  =       384.06917730 eV

  energy without entropy =      384.07135120  energy(sigma->0) =      384.07026425

[...]

 eigenvalue-minimisations  :  1348
 total energy-change (2. order) :-0.3601245E+03  (-0.3569145E+03)
 number of electron      38.0000000 magnetization
 augmentation part       38.0000000 magnetization

[...]

 Broyden mixing:
  rms(total) = 0.37096E+00    rms(broyden)= 0.37096E+00
  rms(prec ) = 0.82272E+00
  weight for this iteration     100.00

[...]

 eigenvalues of (default mixing * dielectric matrix)
  average eigenvalue GAMMA=   2.0855
  2.0855

[...]

 eigenvalue-minimisations  :  1461
 total energy-change (2. order) : 0.4510366E-07  (-0.3836183E-08)
 number of electron      37.9999981 magnetization
 augmentation part       16.2341243 magnetization

 Broyden mixing:
  rms(total) = 0.22005E-04    rms(broyden)= 0.22005E-04
  rms(prec ) = 0.31726E-04
  weight for this iteration     100.00

 eigenvalues of (default mixing * dielectric matrix)
  average eigenvalue GAMMA=   1.7667
  3.0801  2.5562  2.3772  1.9907  1.7125  1.1903  1.0962  0.9749  0.9223

[...]

--------------------------------------- Iteration      1(  15)  ---------------------------------------

 eigenvalue-minimisations  :  1136
 total energy-change (2. order) :-0.4565663E-09  (-0.2807268E-09)
 number of electron      37.9999981 magnetization
 augmentation part       16.2341243 magnetization

 Free energy of the ion-electron system (eV)
  alpha Z        PSCENC =       102.11721323
  Ewald energy   TEWEN  =     -2524.56922660
  -Hartree energ DENC   =     -1240.90833772
  -exchange      EXHF   =         0.00000000
  -V(xc)+E(xc)   XCENC  =       133.43940372
  PAW double counting   =      3381.03693792    -3526.69376912
  entropy T*S    EENTRO =        -0.00015863
  eigenvalues    EBANDS =      -599.85854001
  atomic energy  EATOM  =      4266.28978799
  Solvation  Ediel_sol  =         0.00000000
  free energy    TOTEN  =        -9.14668923 eV

  energy without entropy =       -9.14653059  energy(sigma->0) =       -9.14660991

 average (electrostatic) potential at core
  the test charge radii are     1.0856  1.1045  0.9254
  (the norm of the test charge is              1.0000)
       1-107.3377       2 -36.2923       3 -48.0461       4 -48.0461

 E-fermi :   2.1704     XC(G=0):  -7.9941     alpha+bet : -7.8500

 k-point     1 :       0.0000    0.0000    0.0000
  band No.  band energies     occupation
      1     -29.0247      2.00000
      2     -22.2492      2.00000
      3     -22.2492      2.00000
      4     -22.2492      2.00000
      5     -22.2407      2.00000
      6     -22.2406      2.00000
      7     -22.2406      2.00000
      8     -19.1369      2.00000
      9     -19.1369      2.00000
     10     -19.1369      2.00000
     11     -19.1338      2.00000
     12     -19.1338      2.00000
     13     -12.5396      2.00000
     14     -12.5396      2.00000
     15     -12.5396      2.00000
     16      -7.3610      2.00000
     17       2.0289      1.99994
     18       2.1545      1.34685
     19       2.1545      1.34676
     20       2.1545      1.34676
     21       4.8191      0.00000
     22       4.8191      0.00000
     23       4.8191      0.00000

[...]

 k-point    29 :      -0.2500    0.5000    0.2500
  band No.  band energies     occupation
      1     -29.0245      2.00000
      2     -22.2509      2.00000
      3     -22.2500      2.00000
      4     -22.2450      2.00000
      5     -22.2450      2.00000
      6     -22.2395      2.00000
      7     -22.2392      2.00000
      8     -19.1372      2.00000
      9     -19.1372      2.00000
     10     -19.1364      2.00000
     11     -19.1336      2.00000
     12     -19.1335      2.00000
     13     -12.5486      2.00000
     14     -12.5486      2.00000
     15     -12.5445      2.00000
     16      -7.1480      2.00000
     17       0.6129      2.00000
     18       0.6129      2.00000
     19       1.0229      2.00000
     20       4.9343      0.00000
     21       5.2869      0.00000
     22       5.2869      0.00000
     23       5.5007      0.00000

 soft charge-density along one line, spin component           1
         0         1         2         3         4         5         6         7         8         9
 total charge-density along one line

------------------------ aborting loop because EDIFF is reached ----------------------------------------

  FORCE on cell =-STRESS in cart. coord.  units (eV):
  Direction    XX          YY          ZZ          XY          YZ          ZX
  Alpha Z   102.11721   102.11721   102.11721
  Ewald    -841.52375  -841.52375  -841.52375     0.00010     0.00010     0.00010
  Hartree   413.63616   413.63616   413.63616     0.00006     0.00006     0.00006
  E(xc)    -185.55888  -185.55888  -185.55888     0.00004     0.00004     0.00004
  Local     -80.23850   -80.23850   -80.23850    -0.00022    -0.00022    -0.00022
  n-local     5.24048     5.49809     2.28114     1.91688    -1.46039     0.77464
  augment   226.67169   226.67169   226.67169     0.00004     0.00004     0.00004
  Kinetic   361.40152   361.41969   358.88190     2.93770    -1.84514     1.27153
  Fock        0.00000     0.00000     0.00000     0.00000     0.00000     0.00000
  Total       0.01154     0.01154     0.01154    -0.00000     0.00000     0.00000
  in kB       0.14642     0.14642     0.14642    -0.00000     0.00000     0.00000

 VOLUME and BASIS-vectors are now :
  energy-cutoff  :      520.00
  volume of cell :      126.24
      direct lattice vectors                 reciprocal lattice vectors
     0.000000000  3.981588847  3.981588847    -0.125578009  0.125578009  0.125578009
     3.981588847  0.000000000  3.981588847     0.125578009 -0.125578009  0.125578009
     3.981588847  3.981588847  0.000000000     0.125578009  0.125578009 -0.125578009

  length of vectors
     5.630816947  5.630816947  5.630816947     0.217507492  0.217507492  0.217507492

 FORCES acting on ions
    electron-ion (+dipol)            ewald-force                    non-local-force                 convergence-correction
   0.247E-03 0.247E-03 0.225E-03   -.656E-04 -.656E-04 -.656E-04   -.318E-21 0.212E-21 0.215E-21   0.229E-06 0.229E-06 0.231E-06
   0.851E-03 0.851E-03 0.839E-03   0.127E-03 0.127E-03 0.127E-03   -.424E-20 0.169E-20 -.593E-20   -.216E-06 -.216E-06 -.217E-06
   -.176E-04 -.176E-04 -.175E-04   -.952E-04 -.952E-04 -.952E-04   -.121E-16 -.156E-16 -.154E-16   0.844E-07 0.844E-07 0.845E-07
   0.129E-03 0.129E-03 0.129E-03   0.340E-04 0.340E-04 0.340E-04   0.867E-17 0.173E-16 0.164E-16   -.857E-09 -.857E-09 -.798E-09
   0.121E-02 0.121E-02 0.118E-02   -.499E-15 0.812E-15 -.623E-16   -.347E-17 0.174E-17 0.102E-17   0.967E-07 0.967E-07 0.973E-07

 POSITION                                       TOTAL-FORCE (eV/Angst)
      1.99079      1.99079      1.99079         0.000000     -0.000000      0.000000
      5.97238      5.97238      5.97238        -0.000000      0.000000     -0.000000
      0.00000      0.00000      0.00000         0.000000     -0.000000     -0.000000
      3.98159      3.98159      3.98159         0.000000     -0.000000      0.000000
    total drift:                                0.001209      0.001209      0.001175

  FREE ENERGIE OF THE ION-ELECTRON SYSTEM (eV)
  free  energy   TOTEN  =        -9.14668923 eV

  energy  without entropy=       -9.14653059  energy(sigma->0) =       -9.14660991