 vasp.5.4.4.18Apr17-6-g9f103f2a35 (build Jun 23 2019 17:35:09) complex

 executed on             LinuxIFC date 2020.01.14  23:18:53

 INCAR:
 POTCAR:    PAW_PBE Bi_d 06Sep2000
 POTCAR:    PAW_PBE Cs_sv 08Apr2002
 POTCAR:    PAW_PBE Rb_sv 06Sep2000

 POTCAR:    PAW_PBE Bi_d 06Sep2000
   VRHFIN =Bi:

   TITEL  = PAW_PBE Bi_d 06Sep2000
   POMASS =  208.980; ZVAL   =   15.000    mass and valenz
   ENMAX  =  242.839; ENMIN  =  182.129 eV

 POTCAR:    PAW_PBE Cs_sv 08Apr2002
   VRHFIN =Cs: 5s5p6s

   TITEL  = PAW_PBE Cs_sv 08Apr2002
   POMASS =  132.900; ZVAL   =    9.000    mass and valenz
   ENMAX  =  220.318; ENMIN  =  165.238 eV

 POTCAR:    PAW_PBE Rb_sv 06Sep2000
   VRHFIN =Rb: 4s4p5s

   TITEL  = PAW_PBE Rb_sv 06Sep2000
   POMASS =   85.468; ZVAL   =    9.000    mass and valenz
   ENMAX  =  220.112; ENMIN  =  165.084 eV

  PAW_PBE Bi_d 06Sep2000                :
  PAW_PBE Cs_sv 08Apr2002               :
  PAW_PBE Rb_sv 06Sep2000               :

 POSCAR: Cs Bi Rb
  positions in direct lattice
 exchange correlation table for  LEXCH =        8
   RHO(1)=    0.500       N(1)  =     2000
   RHO(2)=  100.500       N(2)  =     4000

 ion  position               nearest neighbor table
   1  0.250  0.250  0.250-   4 3.96   3 3.96   3 3.96   3 3.96   4 3.96   4 3.96   4 3.96   3 3.96

   2  0.750  0.750  0.750-   4 3.96   4 3.96   4 3.96   3 3.96   3 3.96   3 3.96   3 3.96   4 3.96

   3  0.000  0.000  0.000-   1 3.96   1 3.96   1 3.96   2 3.96   2 3.96   2 3.96   2 3.96   1 3.96
                             4 4.57   4 4.57   4 4.57   4 4.57   4 4.57   4 4.57
   4  0.500  0.500  0.500-   1 3.96   2 3.96   2 3.96   2 3.96   1 3.96   1 3.96   1 3.96   2 3.96
                             3 4.57   3 4.57   3 4.57   3 4.57   3 4.57   3 4.57

  LATTYP: Found a face centered cubic cell.
 ALAT       =     9.1371880000

  Lattice vectors:

 A1 = (   0.0000000000,   4.5685940000,   4.5685940000)
 A2 = (   4.5685940000,   0.0000000000,   4.5685940000)
 A3 = (   4.5685940000,   4.5685940000,   0.0000000000)

Analysis of symmetry for initial positions (statically):
 Subroutine PRICEL returns:
 Original cell was already a primitive cell.

 Routine SETGRP: Setting up the symmetry group for a
 face centered cubic supercell.

 Subroutine GETGRP returns: Found 48 space group operations
 (whereof 24 operations were pure point group operations)
 out of a pool of 48 trial point group operations.

The static configuration has the point symmetry T_d .
 The point group associated with its full space group is O_h .

Analysis of symmetry for dynamics (positions and initial velocities):
 Subroutine PRICEL returns:
 Original cell was already a primitive cell.

 Routine SETGRP: Setting up the symmetry group for a
 face centered cubic supercell.

 Subroutine GETGRP returns: Found 48 space group operations
 (whereof 24 operations were pure point group operations)
 out of a pool of 48 trial point group operations.

The dynamic configuration has the point symmetry T_d .
 The point group associated with its full space group is O_h .

 Subroutine INISYM returns: Found 48 space group operations
 (whereof 24 operations are pure point group operations),
 and found     1 'primitive' translations

 KPOINTS: KPOINTS

Automatic generation of k-mesh.
Space group operators:
 irot       det(A)        alpha          n_x          n_y          n_z        tau_x        tau_y        tau_z
    1     1.000000     0.000000     1.000000     0.000000     0.000000     0.000000     0.000000     0.000000
    2     1.000000   120.000000    -0.577350    -0.577350    -0.577350     0.000000     0.000000     0.000000
    3     1.000000   120.000000     0.577350     0.577350     0.577350     0.000000     0.000000     0.000000
    4    -1.000000    90.000000     0.000000     0.000000    -1.000000     0.000000     0.000000     0.000000
    5    -1.000000   180.000000     0.000000     0.707107     0.707107     0.000000     0.000000     0.000000
    6    -1.000000    90.000000     0.000000     1.000000     0.000000     0.000000     0.000000     0.000000
    7     1.000000   180.000000     0.000000     0.000000     1.000000     0.000000     0.000000     0.000000
    8     1.000000   120.000000    -0.577350     0.577350     0.577350     0.000000     0.000000     0.000000
    9     1.000000   120.000000    -0.577350     0.577350    -0.577350     0.000000     0.000000     0.000000
   10    -1.000000    90.000000     0.000000     0.000000     1.000000     0.000000     0.000000     0.000000
   11    -1.000000    90.000000    -1.000000     0.000000     0.000000     0.000000     0.000000     0.000000
   12    -1.000000   180.000000     0.707107     0.000000     0.707107     0.000000     0.000000     0.000000
   13     1.000000   120.000000     0.577350    -0.577350     0.577350     0.000000     0.000000     0.000000
   14     1.000000   120.000000    -0.577350    -0.577350     0.577350     0.000000     0.000000     0.000000
   15     1.000000   180.000000     1.000000     0.000000     0.000000     0.000000     0.000000     0.000000
   16    -1.000000    90.000000     0.000000    -1.000000     0.000000     0.000000     0.000000     0.000000
   17    -1.000000   180.000000     0.707107     0.707107     0.000000     0.000000     0.000000     0.000000
   18    -1.000000    90.000000     1.000000     0.000000     0.000000     0.000000     0.000000     0.000000
   19     1.000000   120.000000     0.577350    -0.577350    -0.577350     0.000000     0.000000     0.000000
   20     1.000000   180.000000     0.000000     1.000000     0.000000     0.000000     0.000000     0.000000
   21     1.000000   120.000000     0.577350     0.577350    -0.577350     0.000000     0.000000     0.000000
   22    -1.000000   180.000000     0.000000    -0.707107     0.707107     0.000000     0.000000     0.000000
   23    -1.000000   180.000000     0.707107    -0.707107     0.000000     0.000000     0.000000     0.000000
   24    -1.000000   180.000000     0.707107     0.000000    -0.707107     0.000000     0.000000     0.000000
   25    -1.000000     0.000000     1.000000     0.000000     0.000000     0.500001     0.500001     0.500001
   26    -1.000000   120.000000    -0.577350    -0.577350    -0.577350     0.500001     0.500001     0.500001
   27    -1.000000   120.000000     0.577350     0.577350     0.577350     0.500001     0.500001     0.500001
   28     1.000000    90.000000     0.000000     0.000000    -1.000000     0.499999     0.500001     0.500001
   29     1.000000   180.000000     0.000000     0.707107     0.707107     0.499999     0.500001     0.500001
   30     1.000000    90.000000     0.000000     1.000000     0.000000     0.499999     0.500001     0.500001
   31    -1.000000   180.000000     0.000000     0.000000     1.000000     0.500001     0.500001     0.499999
   32    -1.000000   120.000000    -0.577350     0.577350     0.577350     0.500001     0.500001     0.499999
   33    -1.000000   120.000000    -0.577350     0.577350    -0.577350     0.500001     0.500001     0.499999
   34     1.000000    90.000000     0.000000     0.000000     1.000000     0.500001     0.499999     0.500001
   35     1.000000    90.000000    -1.000000     0.000000     0.000000     0.500001     0.499999     0.500001
   36     1.000000   180.000000     0.707107     0.000000     0.707107     0.500001     0.499999     0.500001
   37    -1.000000   120.000000     0.577350    -0.577350     0.577350     0.499999     0.500001     0.500001
   38    -1.000000   120.000000    -0.577350    -0.577350     0.577350     0.499999     0.500001     0.500001
   39    -1.000000   180.000000     1.000000     0.000000     0.000000     0.499999     0.500001     0.500001
   40     1.000000    90.000000     0.000000    -1.000000     0.000000     0.500001     0.500001     0.499999
   41     1.000000   180.000000     0.707107     0.707107     0.000000     0.500001     0.500001     0.499999
   42     1.000000    90.000000     1.000000     0.000000     0.000000     0.500001     0.500001     0.499999
   43    -1.000000   120.000000     0.577350    -0.577350    -0.577350     0.500001     0.499999     0.500001
   44    -1.000000   180.000000     0.000000     1.000000     0.000000     0.500001     0.499999     0.500001
   45    -1.000000   120.000000     0.577350     0.577350    -0.577350     0.500001     0.499999     0.500001
   46     1.000000   180.000000     0.000000    -0.707107     0.707107     0.500001     0.500001     0.500001
   47     1.000000   180.000000     0.707107    -0.707107     0.000000     0.500001     0.500001     0.500001
   48     1.000000   180.000000     0.707107     0.000000    -0.707107     0.500001     0.500001     0.500001

 Subroutine IBZKPT returns following result:

 Found     29 irreducible k-points:

 Following reciprocal coordinates:
            Coordinates               Weight
  0.000000  0.000000  0.000000      1.000000
  0.125000  0.000000  0.000000      8.000000
  0.250000  0.000000  0.000000      8.000000
  0.375000  0.000000  0.000000      8.000000
  0.500000  0.000000  0.000000      4.000000
  0.125000  0.125000  0.000000      6.000000
  0.250000  0.125000  0.000000     24.000000
  0.375000  0.125000  0.000000     24.000000
  0.500000  0.125000  0.000000     24.000000
 -0.375000  0.125000  0.000000     24.000000
 -0.250000  0.125000  0.000000     24.000000
 -0.125000  0.125000  0.000000     12.000000
  0.250000  0.250000  0.000000      6.000000
  0.375000  0.250000  0.000000     24.000000
  0.500000  0.250000  0.000000     24.000000
 -0.375000  0.250000  0.000000     24.000000
 -0.250000  0.250000  0.000000     12.000000
  0.375000  0.375000  0.000000      6.000000
  0.500000  0.375000  0.000000     24.000000
 -0.375000  0.375000  0.000000     12.000000
  0.500000  0.500000  0.000000      3.000000
  0.375000  0.250000  0.125000     24.000000
  0.500000  0.250000  0.125000     48.000000
 -0.375000  0.250000  0.125000     24.000000
  0.500000  0.375000  0.125000     24.000000
 -0.375000  0.375000  0.125000     48.000000
 -0.250000  0.375000  0.125000     24.000000
 -0.375000  0.500000  0.125000     12.000000
 -0.250000  0.500000  0.250000      6.000000

 Following cartesian coordinates:
            Coordinates               Weight
  0.000000  0.000000  0.000000      1.000000
 -0.013680  0.013680  0.013680      8.000000
 -0.027361  0.027361  0.027361      8.000000
 -0.041041  0.041041  0.041041      8.000000
 -0.054721  0.054721  0.054721      4.000000
  0.000000  0.000000  0.027361      6.000000
 -0.013680  0.013680  0.041041     24.000000
 -0.027361  0.027361  0.054721     24.000000
 -0.041041  0.041041  0.068402     24.000000
  0.054721 -0.054721 -0.027361     24.000000
  0.041041 -0.041041 -0.013680     24.000000
  0.027361 -0.027361  0.000000     12.000000
  0.000000  0.000000  0.054721      6.000000
 -0.013680  0.013680  0.068402     24.000000
 -0.027361  0.027361  0.082082     24.000000
  0.068402 -0.068402 -0.013680     24.000000
  0.054721 -0.054721  0.000000     12.000000
  0.000000  0.000000  0.082082      6.000000
 -0.013680  0.013680  0.095763     24.000000
  0.082082 -0.082082  0.000000     12.000000
  0.000000  0.000000  0.109443      3.000000
[...]
  -0.37500000  0.12500000  0.00000000       0.047
  -0.25000000  0.12500000  0.00000000       0.047
  -0.12500000  0.12500000  0.00000000       0.023
   0.25000000  0.25000000  0.00000000       0.012
   0.37500000  0.25000000  0.00000000       0.047
   0.50000000  0.25000000  0.00000000       0.047
  -0.37500000  0.25000000  0.00000000       0.047
  -0.25000000  0.25000000  0.00000000       0.023
   0.37500000  0.37500000  0.00000000       0.012
   0.50000000  0.37500000  0.00000000       0.047
  -0.37500000  0.37500000  0.00000000       0.023
   0.50000000  0.50000000  0.00000000       0.006
   0.37500000  0.25000000  0.12500000       0.047
   0.50000000  0.25000000  0.12500000       0.094
  -0.37500000  0.25000000  0.12500000       0.047
   0.50000000  0.37500000  0.12500000       0.047
  -0.37500000  0.37500000  0.12500000       0.094
  -0.25000000  0.37500000  0.12500000       0.047
  -0.37500000  0.50000000  0.12500000       0.023
  -0.25000000  0.50000000  0.25000000       0.012

 position of ions in fractional coordinates (direct lattice)
   0.25000033  0.25000033  0.25000033
   0.74999989  0.74999989  0.74999989
   0.00000000  0.00000000  0.00000000
   0.49999956  0.49999956  0.49999956

 position of ions in cartesian coordinates  (Angst):
   2.28430000  2.28430000  2.28430000
   6.85289000  6.85289000  6.85289000
   0.00000000  0.00000000  0.00000000
   4.56859000  4.56859000  4.56859000

 k-point  1 :   0.0000 0.0000 0.0000  plane waves:    5065
 k-point  2 :   0.1250 0.0000 0.0000  plane waves:    5083
 k-point  3 :   0.2500 0.0000 0.0000  plane waves:    5114
 k-point  4 :   0.3750 0.0000 0.0000  plane waves:    5132
 k-point  5 :   0.5000 0.0000 0.0000  plane waves:    5120
 k-point  6 :   0.1250 0.1250 0.0000  plane waves:    5093
 k-point  7 :   0.2500 0.1250 0.0000  plane waves:    5134
 k-point  8 :   0.3750 0.1250 0.0000  plane waves:    5138
 k-point  9 :   0.5000 0.1250 0.0000  plane waves:    5138
 k-point 10 :  -0.3750 0.1250 0.0000  plane waves:    5134
 k-point 11 :  -0.2500 0.1250 0.0000  plane waves:    5126
 k-point 12 :  -0.1250 0.1250 0.0000  plane waves:    5110
 k-point 13 :   0.2500 0.2500 0.0000  plane waves:    5105
 k-point 14 :   0.3750 0.2500 0.0000  plane waves:    5136
 k-point 15 :   0.5000 0.2500 0.0000  plane waves:    5133
 k-point 16 :  -0.3750 0.2500 0.0000  plane waves:    5145
 k-point 17 :  -0.2500 0.2500 0.0000  plane waves:    5166
 k-point 18 :   0.3750 0.3750 0.0000  plane waves:    5133
 k-point 19 :   0.5000 0.3750 0.0000  plane waves:    5146
 k-point 20 :  -0.3750 0.3750 0.0000  plane waves:    5134
 k-point 21 :   0.5000 0.5000 0.0000  plane waves:    5104
 k-point 22 :   0.3750 0.2500 0.1250  plane waves:    5132
 k-point 23 :   0.5000 0.2500 0.1250  plane waves:    5141
 k-point 24 :  -0.3750 0.2500 0.1250  plane waves:    5142
 k-point 25 :   0.5000 0.3750 0.1250  plane waves:    5142
 k-point 26 :  -0.3750 0.3750 0.1250  plane waves:    5138
 k-point 27 :  -0.2500 0.3750 0.1250  plane waves:    5148
 k-point 28 :  -0.3750 0.5000 0.1250  plane waves:    5138
 k-point 29 :  -0.2500 0.5000 0.2500  plane waves:    5124

 maximum and minimum number of plane-waves per node :       750      714

 maximum number of plane-waves:      5166
 maximum index in each direction:
   IXMAX=   12   IYMAX=   12   IZMAX=   12
   IXMIN=  -12   IYMIN=  -12   IZMIN=  -12

 parallel 3D FFT for wavefunctions:
    minimum data exchange during FFTs selected (reduces bandwidth)
 parallel 3D FFT for charge:
    minimum data exchange during FFTs selected (reduces bandwidth)

 Broyden mixing: mesh for mixing (old mesh)
   NGX = 25   NGY = 25   NGZ = 25
  (NGX  = 96   NGY  = 96   NGZ  = 96)
  gives a total of  15625 points

 initial charge density was supplied:
 charge density of overlapping atoms calculated
 number of electron      42.0000000 magnetization
 keeping initial charge density in first step

 Maximum index for augmentation-charges         4046 (set IRDMAX)

 First call to EWALD:  gamma=   0.308
 Maximum number of real-space cells 3x 3x 3
 Maximum number of reciprocal cells 3x 3x 3

--------------------------------------- Iteration      1(   1)  ---------------------------------------

 eigenvalue-minimisations  :  1450
 total energy-change (2. order) : 0.3745480E+03  (-0.1911599E+04)
 number of electron      42.0000000 magnetization
 augmentation part       42.0000000 magnetization

 Free energy of the ion-electron system (eV)
  alpha Z        PSCENC =       145.63281582
  Ewald energy   TEWEN  =     -2607.69375360
  -Hartree energ DENC   =     -1035.57759202
  -exchange      EXHF   =         0.00000000
  -V(xc)+E(xc)   XCENC  =       117.04167598
  PAW double counting   =      3110.29076924    -3064.67432099
  entropy T*S    EENTRO =        -0.00154487
  eigenvalues    EBANDS =      -130.35809627
  atomic energy  EATOM  =      3839.88806440
  Solvation  Ediel_sol  =         0.00000000
  free energy    TOTEN  =       374.54801769 eV

  energy without entropy =      374.54956256  energy(sigma->0) =      374.54879013

[...]

 eigenvalue-minimisations  :  1753
 total energy-change (2. order) :-0.3484837E+03  (-0.3448744E+03)
 number of electron      42.0000000 magnetization
 augmentation part       42.0000000 magnetization

[...]

 Broyden mixing:
  rms(total) = 0.40965E+00    rms(broyden)= 0.40965E+00
  rms(prec ) = 0.10871E+01
  weight for this iteration     100.00

[...]

 eigenvalues of (default mixing * dielectric matrix)
  average eigenvalue GAMMA=   1.7595
  1.7595

[...]

 average (electrostatic) potential at core
  the test charge radii are     1.0856  1.1312  1.1097
  (the norm of the test charge is              1.0000)
       1-107.1568       2 -50.9846       3 -38.0990       4 -38.0990

 E-fermi :   2.0516     XC(G=0):  -7.6230     alpha+bet : -7.3478

 k-point     1 :       0.0000    0.0000    0.0000
  band No.  band energies     occupation
      1     -25.8003      2.00000
      2     -25.7830      2.00000
      3     -21.2425      2.00000
      4     -18.9465      2.00000
      5     -18.9465      2.00000
      6     -18.9465      2.00000
      7     -18.9413      2.00000
      8     -18.9413      2.00000
      9      -9.9838      2.00000
     10      -9.9838      2.00000
     11      -9.9838      2.00000
     12      -9.8990      2.00000
     13      -9.8990      2.00000
     14      -9.8990      2.00000
     15      -8.0615      2.00000
     16      -8.0615      2.00000
     17      -8.0615      2.00000
     18      -6.9303      2.00000
     19       1.8310      2.00000
     20       1.8311      2.00000
     21       1.8311      2.00000
     22       2.1681      0.00099
     23       3.7659      0.00000
     24       3.7659      0.00000
     25       4.7577      0.00000

[...]

 soft charge-density along one line, spin component           1
         0         1         2         3         4         5         6         7         8         9
 total charge-density along one line

------------------------ aborting loop because EDIFF is reached ----------------------------------------

  FORCE on cell =-STRESS in cart. coord.  units (eV):
  Direction    XX          YY          ZZ          XY          YZ          ZX
  Alpha Z   145.63282   145.63282   145.63282
  Ewald    -869.23198  -869.23198  -869.23198     0.00037     0.00037     0.00037
  Hartree   346.13483   346.13483   346.13483    -0.00001    -0.00001    -0.00001
  E(xc)    -170.82049  -170.82049  -170.82049     0.00000     0.00000     0.00000
  Local    -110.10211  -110.10211  -110.10211    -0.00042    -0.00042    -0.00042
  n-local    27.65943    27.86745    25.93835     1.12872    -0.93619     0.62884
  augment   118.58978   118.58978   118.58978    -0.00001    -0.00001    -0.00001
  Kinetic   513.85868   513.46505   511.61434     1.86067    -1.57564     1.08085
  Fock        0.00000     0.00000     0.00000     0.00000     0.00000     0.00000
  Total       0.33727     0.33727     0.33727     0.00000     0.00000     0.00000
  in kB       2.83341     2.83341     2.83341     0.00000     0.00000     0.00000

 VOLUME and BASIS-vectors are now :
  energy-cutoff  :      520.00
  volume of cell :      190.71
      direct lattice vectors                 reciprocal lattice vectors
     0.000000000  4.568594000  4.568594000    -0.109442861  0.109442861  0.109442861
     4.568594000  0.000000000  4.568594000     0.109442861 -0.109442861  0.109442861
     4.568594000  4.568594000  0.000000000     0.109442861  0.109442861 -0.109442861

[...]

 FORCES acting on ions
    electron-ion (+dipol)            ewald-force                    non-local-force                 convergence-correction
   -.146E-02 -.146E-02 -.138E-02   -.598E-03 -.598E-03 -.598E-03   -.339E-20 -.339E-20 0.424E-20   0.151E-04 0.151E-04 0.156E-04
   0.140E-02 0.140E-02 0.145E-02   0.120E-03 0.120E-03 0.120E-03   -.127E-20 -.424E-20 -.296E-20   -.372E-05 -.372E-05 -.393E-05
   0.950E-03 0.950E-03 0.100E-02   -.455E-09 -.455E-09 -.455E-09   0.173E-17 0.347E-17 0.347E-17   0.354E-05 0.354E-05 0.354E-05
   0.345E-02 0.345E-02 0.351E-02   0.478E-03 0.478E-03 0.478E-03   0.347E-17 -.520E-17 -.130E-17   -.752E-05 -.752E-05 -.751E-05
   0.435E-02 0.435E-02 0.457E-02   -.394E-15 -.173E-15 -.217E-14   0.520E-17 -.174E-17 0.217E-17   0.742E-05 0.742E-05 0.767E-05

 POSITION                                       TOTAL-FORCE (eV/Angst)
      2.28430      2.28430      2.28430        -0.000000     -0.000000      0.000000
      6.85289      6.85289      6.85289         0.000000      0.000000      0.000000
      0.00000      0.00000      0.00000        -0.000000     -0.000000     -0.000000
      4.56859      4.56859      4.56859         0.000000      0.000000      0.000000
    total drift:                                0.004354      0.004354      0.004582

  FREE ENERGIE OF THE ION-ELECTRON SYSTEM (eV)
  free  energy   TOTEN  =        -7.93815665 eV

  energy  without entropy=       -7.93815612  energy(sigma->0) =       -7.93815638

[...]

 d Force = 0.0000000E+00[ 0.000E+00, 0.000E+00]  d Energy = 0.3096826E-02-0.310E-02
 d Force = 0.0000000E+00[ 0.000E+00, 0.000E+00]  d Ewald  =-0.1056431E+02 0.106E+02

 Steepest descent step on ions:
 trial-energy change:   -0.003097  1 .order   -0.003156   -0.004116   -0.002197
  (g-gl).g = 0.412E-02      g.g   = 0.412E-02  gl.gl    = 0.000E+00
 g(Force)  = 0.495E-38   g(Stress)= 0.412E-02 ortho     = 0.000E+00
 gamma     =   0.00000
 trial     =   1.00000
 opt step  =   2.14473  (harmonic =   2.14473) maximal distance =0.00000000
 next E    =    -7.942570   (d E  =  -0.00441)

[...]

 eigenvalue-minimisations  :  1480
 total energy-change (2. order) :-0.5266046E-03  (-0.1364897E-02)
 number of electron      41.9999995 magnetization
 augmentation part        3.4711077 magnetization

[...]

 Broyden mixing:
  rms(total) = 0.49650E-03    rms(broyden)= 0.49649E-03
  rms(prec ) = 0.85099E-03
  weight for this iteration     100.00

 eigenvalues of (default mixing * dielectric matrix)
  average eigenvalue GAMMA=   1.7445
  1.5006  1.5006  2.2323

[...]

--------------------------------------- Iteration      4(   5)  ---------------------------------------

 eigenvalue-minimisations  :   771
 total energy-change (2. order) : 0.1118176E-05  (-0.4908321E-06)
 number of electron      41.9999995 magnetization
 augmentation part        3.4699684 magnetization

 Free energy of the ion-electron system (eV)
  alpha Z        PSCENC =       141.71061232
  Ewald energy   TEWEN  =     -2584.07013028
  -Hartree energ DENC   =     -1052.36377545
  -exchange      EXHF   =         0.00000000
  -V(xc)+E(xc)   XCENC  =       116.77019234
  PAW double counting   =      3233.85799515    -3190.35602716
  entropy T*S    EENTRO =        -0.00000930
  eigenvalues    EBANDS =      -513.37951565
  atomic energy  EATOM  =      3839.88806440
  Solvation  Ediel_sol  =         0.00000000
  free energy    TOTEN  =        -7.94259363 eV

  energy without entropy =       -7.94258433  energy(sigma->0) =       -7.94258898

 average (electrostatic) potential at core
  the test charge radii are     1.0856  1.1312  1.1097
  (the norm of the test charge is              1.0000)
       1-107.2993       2 -51.1291       3 -38.2490       4 -38.2491

 E-fermi :   1.8982     XC(G=0):  -7.5228     alpha+bet : -7.1499

[...]

 k-point    29 :      -0.2500    0.5000    0.2500
  band No.  band energies     occupation
      1     -25.9380      2.00000
      2     -25.9380      2.00000
      3     -21.3862      2.00000
      4     -19.0870      2.00000
      5     -19.0869      2.00000
      6     -19.0869      2.00000
      7     -19.0823      2.00000
      8     -19.0823      2.00000
      9     -10.2215      2.00000
     10     -10.1426      2.00000
     11     -10.0995      2.00000
     12     -10.0995      2.00000
     13     -10.0009      2.00000
     14      -9.9986      2.00000
     15      -8.2044      2.00000
     16      -8.2044      2.00000
     17      -8.1639      2.00000
     18      -6.9376      2.00000
     19       1.2604      2.00000
     20       1.2605      2.00000
     21       1.5430      2.00000
     22       3.7479      0.00000
     23       4.1811      0.00000
     24       4.1811      0.00000
     25       4.6225      0.00000

 soft charge-density along one line, spin component           1
         0         1         2         3         4         5         6         7         8         9
 total charge-density along one line

------------------------ aborting loop because EDIFF is reached ----------------------------------------

  FORCE on cell =-STRESS in cart. coord.  units (eV):
  Direction    XX          YY          ZZ          XY          YZ          ZX
  Alpha Z   141.71061   141.71061   141.71061
  Ewald    -861.35744  -861.35744  -861.35744     0.00037     0.00037     0.00037
  Hartree   350.78256   350.78256   350.78256    -0.00001    -0.00001    -0.00001
  E(xc)    -170.72424  -170.72424  -170.72424     0.00000     0.00000     0.00000
  Local    -118.52075  -118.52075  -118.52075    -0.00042    -0.00042    -0.00042
  n-local    27.55882    27.76324    25.80537     1.18024    -0.98530     0.65671
  augment   118.58947   118.58947   118.58947    -0.00001    -0.00001    -0.00001
  Kinetic   513.34444   512.99545   511.08446     1.86250    -1.57282     1.07730
  Fock        0.00000     0.00000     0.00000     0.00000     0.00000     0.00000
  Total      -0.00252    -0.00252    -0.00252     0.00000    -0.00000     0.00000
  in kB      -0.02058    -0.02058    -0.02058     0.00000    -0.00000     0.00000

 VOLUME and BASIS-vectors are now :
  energy-cutoff  :      520.00
  volume of cell :      195.99
      direct lattice vectors                 reciprocal lattice vectors
     0.000000000  4.610360182  4.610360182    -0.108451396  0.108451396  0.108451396
     4.610360182  0.000000000  4.610360182     0.108451396 -0.108451396  0.108451396
     4.610360182  4.610360182 -0.000000000     0.108451396  0.108451396 -0.108451396

  length of vectors
     6.520033897  6.520033897  6.520033897     0.187843329  0.187843329  0.187843329

 FORCES acting on ions
    electron-ion (+dipol)            ewald-force                    non-local-force                 convergence-correction
   -.147E-02 -.147E-02 -.139E-02   -.587E-03 -.587E-03 -.587E-03   0.381E-20 -.551E-20 -.423E-20   -.249E-07 -.249E-07 -.337E-07
   0.142E-02 0.142E-02 0.147E-02   0.117E-03 0.117E-03 0.117E-03   -.466E-20 -.466E-20 0.254E-20   0.181E-07 0.181E-07 0.241E-07
   0.965E-03 0.965E-03 0.102E-02   -.447E-09 -.447E-09 -.447E-09   0.173E-16 0.867E-17 0.234E-16   0.292E-07 0.292E-07 0.327E-07
   0.350E-02 0.350E-02 0.356E-02   0.470E-03 0.470E-03 0.470E-03   -.260E-16 -.694E-17 -.158E-16   0.130E-06 0.130E-06 0.134E-06
   0.442E-02 0.442E-02 0.466E-02   0.658E-15 0.855E-15 -.209E-15   -.867E-17 0.172E-17 0.759E-17   0.153E-06 0.153E-06 0.157E-06

 POSITION                                       TOTAL-FORCE (eV/Angst)
      2.30518      2.30518      2.30518        -0.000000     -0.000000     -0.000000
      6.91554      6.91554      6.91554         0.000000     -0.000000      0.000000
     -0.00000     -0.00000     -0.00000         0.000000      0.000000      0.000000
      4.61036      4.61036      4.61036        -0.000000     -0.000000     -0.000000
    total drift:                                0.004422      0.004422      0.004662

  FREE ENERGIE OF THE ION-ELECTRON SYSTEM (eV)
  free  energy   TOTEN  =        -7.94259363 eV

  energy  without entropy=       -7.94258433  energy(sigma->0) =       -7.94258898

 d Force = 0.0000000E+00[ 0.000E+00, 0.000E+00]  d Energy = 0.1043450E-04-0.104E-04
 d Force = 0.0000000E+00[ 0.000E+00, 0.000E+00]  d Ewald  =-0.1070643E+01 0.107E+01

 reached required accuracy - stopping structural energy minimisation