 vasp.5.4.4.18Apr17-6-g9f103f2a35 (build Jun 23 2019 17:35:09) complex

 executed on             LinuxIFC date 2020.01.15  15:37:53

 INCAR:
 POTCAR:    PAW_PBE Bi_d 06Sep2000
 POTCAR:    PAW_PBE Na_pv 19Sep2006
 POTCAR:    PAW_PBE Rb_sv 06Sep2000

 POTCAR:    PAW_PBE Bi_d 06Sep2000
   VRHFIN =Bi:

   TITEL  = PAW_PBE Bi_d 06Sep2000
   POMASS =  208.980; ZVAL   =   15.000    mass and valenz
   ENMAX  =  242.839; ENMIN  =  182.129 eV

 POTCAR:    PAW_PBE Na_pv 19Sep2006
   VRHFIN =Na: p6s1

   TITEL  = PAW_PBE Na_pv 19Sep2006
   POMASS =   22.990; ZVAL   =    7.000    mass and valenz
   ENMAX  =  259.561; ENMIN  =  194.671 eV

 POTCAR:    PAW_PBE Rb_sv 06Sep2000
   VRHFIN =Rb: 4s4p5s

   TITEL  = PAW_PBE Rb_sv 06Sep2000
   POMASS =   85.468; ZVAL   =    9.000    mass and valenz
   ENMAX  =  220.112; ENMIN  =  165.084 eV

  PAW_PBE Bi_d 06Sep2000                :
  PAW_PBE Na_pv 19Sep2006               :
  PAW_PBE Rb_sv 06Sep2000               :

 POSCAR: Na Bi Rb
  positions in direct lattice
  velocities in cartesian coordinates
 exchange correlation table for  LEXCH =        8
   RHO(1)=    0.500       N(1)  =     2000
   RHO(2)=  100.500       N(2)  =     4000

 ion  position               nearest neighbor table
   1  0.250  0.250  0.250-   4 4.06   4 4.06   4 4.06   4 4.06   4 4.06   4 4.06
   2  0.000  0.000  0.000-   4 3.51   4 3.51   4 3.51   4 3.51
   3  0.500  0.500  0.500-   4 3.51   4 3.51   4 3.51   4 3.51
   4  0.750  0.750  0.750-   3 3.51   2 3.51   2 3.51   2 3.51   3 3.51   3 3.51   3 3.51   2 3.51
                             1 4.06   1 4.06   1 4.06   1 4.06   1 4.06   1 4.06

  LATTYP: Found a face centered cubic cell.
 ALAT       =     8.1107322821

  Lattice vectors:

 A1 = (   0.0000000000,   4.0553661411,   4.0553661411)
 A2 = (   4.0553661411,   0.0000000000,   4.0553661411)
 A3 = (   4.0553661411,   4.0553661411,   0.0000000000)

Analysis of symmetry for initial positions (statically):
 Subroutine PRICEL returns:
 Original cell was already a primitive cell.

 Routine SETGRP: Setting up the symmetry group for a
 face centered cubic supercell.

 Subroutine GETGRP returns: Found 48 space group operations
 (whereof 24 operations were pure point group operations)
 out of a pool of 48 trial point group operations.

The static configuration has the point symmetry T_d .
 The point group associated with its full space group is O_h .

Analysis of symmetry for dynamics (positions and initial velocities):
 Subroutine PRICEL returns:
 Original cell was already a primitive cell.

 Routine SETGRP: Setting up the symmetry group for a
 face centered cubic supercell.

 Subroutine GETGRP returns: Found 48 space group operations
 (whereof 24 operations were pure point group operations)
 out of a pool of 48 trial point group operations.

The dynamic configuration has the point symmetry T_d .
 The point group associated with its full space group is O_h .

 Subroutine INISYM returns: Found 48 space group operations
 (whereof 24 operations are pure point group operations),
 and found     1 'primitive' translations

 KPOINTS: KPOINTS

Automatic generation of k-mesh.
Space group operators:
 irot       det(A)        alpha          n_x          n_y          n_z        tau_x        tau_y        tau_z
    1     1.000000     0.000000     1.000000     0.000000     0.000000     0.000000     0.000000     0.000000
    2     1.000000   120.000000    -0.577350    -0.577350    -0.577350     0.000000     0.000000     0.000000
    3     1.000000   120.000000     0.577350     0.577350     0.577350     0.000000     0.000000     0.000000
    4    -1.000000    90.000000     0.000000     0.000000    -1.000000     0.000000     0.000000     0.000000
    5    -1.000000   180.000000     0.000000     0.707107     0.707107     0.000000     0.000000     0.000000
    6    -1.000000    90.000000     0.000000     1.000000     0.000000     0.000000     0.000000     0.000000
    7     1.000000   180.000000     0.000000     0.000000     1.000000     0.000000     0.000000     0.000000
    8     1.000000   120.000000    -0.577350     0.577350     0.577350     0.000000     0.000000     0.000000
    9     1.000000   120.000000    -0.577350     0.577350    -0.577350     0.000000     0.000000     0.000000
   10    -1.000000    90.000000     0.000000     0.000000     1.000000     0.000000     0.000000     0.000000
   11    -1.000000    90.000000    -1.000000     0.000000     0.000000     0.000000     0.000000     0.000000
   12    -1.000000   180.000000     0.707107     0.000000     0.707107     0.000000     0.000000     0.000000
   13     1.000000   120.000000     0.577350    -0.577350     0.577350     0.000000     0.000000     0.000000
   14     1.000000   120.000000    -0.577350    -0.577350     0.577350     0.000000     0.000000     0.000000
   15     1.000000   180.000000     1.000000     0.000000     0.000000     0.000000     0.000000     0.000000
   16    -1.000000    90.000000     0.000000    -1.000000     0.000000     0.000000     0.000000     0.000000
   17    -1.000000   180.000000     0.707107     0.707107     0.000000     0.000000     0.000000     0.000000
   18    -1.000000    90.000000     1.000000     0.000000     0.000000     0.000000     0.000000     0.000000
   19     1.000000   120.000000     0.577350    -0.577350    -0.577350     0.000000     0.000000     0.000000
   20     1.000000   180.000000     0.000000     1.000000     0.000000     0.000000     0.000000     0.000000
   21     1.000000   120.000000     0.577350     0.577350    -0.577350     0.000000     0.000000     0.000000
   22    -1.000000   180.000000     0.000000    -0.707107     0.707107     0.000000     0.000000     0.000000
   23    -1.000000   180.000000     0.707107    -0.707107     0.000000     0.000000     0.000000     0.000000
   24    -1.000000   180.000000     0.707107     0.000000    -0.707107     0.000000     0.000000     0.000000
   25    -1.000000     0.000000     1.000000     0.000000     0.000000     0.500000     0.500000     0.500000
   26    -1.000000   120.000000    -0.577350    -0.577350    -0.577350     0.500000     0.500000     0.500000
   27    -1.000000   120.000000     0.577350     0.577350     0.577350     0.500000     0.500000     0.500000
   28     1.000000    90.000000     0.000000     0.000000    -1.000000     0.500000     0.500000     0.500000
   29     1.000000   180.000000     0.000000     0.707107     0.707107     0.500000     0.500000     0.500000
   30     1.000000    90.000000     0.000000     1.000000     0.000000     0.500000     0.500000     0.500000
   31    -1.000000   180.000000     0.000000     0.000000     1.000000     0.500000     0.500000     0.500000
   32    -1.000000   120.000000    -0.577350     0.577350     0.577350     0.500000     0.500000     0.500000
   33    -1.000000   120.000000    -0.577350     0.577350    -0.577350     0.500000     0.500000     0.500000
   34     1.000000    90.000000     0.000000     0.000000     1.000000     0.500000     0.500000     0.500000
   35     1.000000    90.000000    -1.000000     0.000000     0.000000     0.500000     0.500000     0.500000
   36     1.000000   180.000000     0.707107     0.000000     0.707107     0.500000     0.500000     0.500000
   37    -1.000000   120.000000     0.577350    -0.577350     0.577350     0.500000     0.500000     0.500000
   38    -1.000000   120.000000    -0.577350    -0.577350     0.577350     0.500000     0.500000     0.500000
   39    -1.000000   180.000000     1.000000     0.000000     0.000000     0.500000     0.500000     0.500000
   40     1.000000    90.000000     0.000000    -1.000000     0.000000     0.500000     0.500000     0.500000
   41     1.000000   180.000000     0.707107     0.707107     0.000000     0.500000     0.500000     0.500000
   42     1.000000    90.000000     1.000000     0.000000     0.000000     0.500000     0.500000     0.500000
   43    -1.000000   120.000000     0.577350    -0.577350    -0.577350     0.500000     0.500000     0.500000
   44    -1.000000   180.000000     0.000000     1.000000     0.000000     0.500000     0.500000     0.500000
   45    -1.000000   120.000000     0.577350     0.577350    -0.577350     0.500000     0.500000     0.500000
   46     1.000000   180.000000     0.000000    -0.707107     0.707107     0.500000     0.500000     0.500000
   47     1.000000   180.000000     0.707107    -0.707107     0.000000     0.500000     0.500000     0.500000
   48     1.000000   180.000000     0.707107     0.000000    -0.707107     0.500000     0.500000     0.500000

 Subroutine IBZKPT returns following result:

 Found     29 irreducible k-points:

 Following reciprocal coordinates:
            Coordinates               Weight
  0.000000  0.000000  0.000000      1.000000
  0.125000  0.000000  0.000000      8.000000
  0.250000  0.000000  0.000000      8.000000
  0.375000  0.000000  0.000000      8.000000
  0.500000  0.000000  0.000000      4.000000
  0.125000  0.125000  0.000000      6.000000
  0.250000  0.125000  0.000000     24.000000
  0.375000  0.125000  0.000000     24.000000
  0.500000  0.125000  0.000000     24.000000
 -0.375000  0.125000  0.000000     24.000000
 -0.250000  0.125000  0.000000     24.000000
 -0.125000  0.125000  0.000000     12.000000
  0.250000  0.250000  0.000000      6.000000
  0.375000  0.250000  0.000000     24.000000
  0.500000  0.250000  0.000000     24.000000
 -0.375000  0.250000  0.000000     24.000000
 -0.250000  0.250000  0.000000     12.000000
  0.375000  0.375000  0.000000      6.000000
  0.500000  0.375000  0.000000     24.000000
 -0.375000  0.375000  0.000000     12.000000
  0.500000  0.500000  0.000000      3.000000
  0.375000  0.250000  0.125000     24.000000
  0.500000  0.250000  0.125000     48.000000
 -0.375000  0.250000  0.125000     24.000000
  0.500000  0.375000  0.125000     24.000000
 -0.375000  0.375000  0.125000     48.000000
 -0.250000  0.375000  0.125000     24.000000
 -0.375000  0.500000  0.125000     12.000000
 -0.250000  0.500000  0.250000      6.000000

 Following cartesian coordinates:
            Coordinates               Weight
  0.000000  0.000000  0.000000      1.000000
 -0.015412  0.015412  0.015412      8.000000
 -0.030823  0.030823  0.030823      8.000000
 -0.046235  0.046235  0.046235      8.000000
 -0.061647  0.061647  0.061647      4.000000
  0.000000  0.000000  0.030823      6.000000
 -0.015412  0.015412  0.046235     24.000000
 -0.030823  0.030823  0.061647     24.000000
 -0.046235  0.046235  0.077058     24.000000
  0.061647 -0.061647 -0.030823     24.000000
  0.046235 -0.046235 -0.015412     24.000000
  0.030823 -0.030823  0.000000     12.000000
  0.000000  0.000000  0.061647      6.000000
 -0.015412  0.015412  0.077058     24.000000
 -0.030823  0.030823  0.092470     24.000000
  0.077058 -0.077058 -0.015412     24.000000
  0.061647 -0.061647  0.000000     12.000000
  0.000000  0.000000  0.092470      6.000000
 -0.015412  0.015412  0.107882     24.000000
  0.092470 -0.092470  0.000000     12.000000
  0.000000  0.000000  0.123293      3.000000
 -0.000000  0.030823  0.061647     24.000000
 -0.015412  0.046235  0.077058     48.000000
  0.092470 -0.061647 -0.030823     24.000000
[...]
   LHFCALC =     F    Hartree Fock is set to
   LHFONE  =     F    Hartree Fock one center treatment
   AEXX    =    0.0000 exact exchange contribution

 Linear response parameters
   LEPSILON=     F    determine dielectric tensor
   LRPA    =     F    only Hartree local field effects (RPA)
   LNABLA  =     F    use nabla operator in PAW spheres
   LVEL    =     F    velocity operator in full k-point grid
   LINTERFAST=   F  fast interpolation
   KINTER  =     0    interpolate to denser k-point grid
   CSHIFT  =0.1000    complex shift for real part using Kramers Kronig
   OMEGAMAX=  -1.0    maximum frequency
   DEG_THRESHOLD= 0.2000000E-02 threshold for treating states as degnerate
   RTIME   =   -0.100 relaxation time in fs
  (WPLASMAI=    0.000 imaginary part of plasma frequency in eV, 0.658/RTIME)
   DFIELD  = 0.0000000 0.0000000 0.0000000 field for delta impulse in time

 Orbital magnetization related:
   ORBITALMAG=     F  switch on orbital magnetization
   LCHIMAG   =     F  perturbation theory with respect to B field
   DQ        =  0.001000  dq finite difference perturbation B field
   LLRAUG    =     F  two centre corrections for induced B field

 Static calculation
 charge density and potential will be updated during run
 non-spin polarized calculation
 Variant of blocked Davidson
 Davidson routine will perform the subspace rotation
 perform sub-space diagonalisation
    after iterative eigenvector-optimisation
 modified Broyden-mixing scheme, WC =      100.0
 initial mixing is a Kerker type mixing with AMIX =  0.4000 and BMIX =      1.0000
 Hartree-type preconditioning will be used
 using additional bands            4
 reciprocal scheme for non local part
 use partial core corrections
 calculate Harris-corrections to forces
   (improved forces if not selfconsistent)
 use gradient corrections
 use of overlap-Matrix (Vanderbilt PP)
 Gauss-broadening in eV      SIGMA  =   0.05

  energy-cutoff  :      520.00
  volume of cell :      133.39
      direct lattice vectors                 reciprocal lattice vectors
     0.000000000  4.055366141  4.055366141    -0.123293430  0.123293430  0.123293430
     4.055366141  0.000000000  4.055366141     0.123293430 -0.123293430  0.123293430
     4.055366141  4.055366141  0.000000000     0.123293430  0.123293430 -0.123293430

  length of vectors
     5.735153797  5.735153797  5.735153797     0.213550484  0.213550484  0.213550484

 k-points in units of 2pi/SCALE and weight: KPOINTS
   0.00000000  0.00000000  0.00000000       0.002
  -0.01541168  0.01541168  0.01541168       0.016
  -0.03082336  0.03082336  0.03082336       0.016
  -0.04623504  0.04623504  0.04623504       0.016
  -0.06164671  0.06164671  0.06164671       0.008
   0.00000000  0.00000000  0.03082336       0.012
  -0.01541168  0.01541168  0.04623504       0.047
  -0.03082336  0.03082336  0.06164671       0.047
  -0.04623504  0.04623504  0.07705839       0.047
   0.06164671 -0.06164671 -0.03082336       0.047
   0.04623504 -0.04623504 -0.01541168       0.047
   0.03082336 -0.03082336  0.00000000       0.023
   0.00000000  0.00000000  0.06164671       0.012
  -0.01541168  0.01541168  0.07705839       0.047
  -0.03082336  0.03082336  0.09247007       0.047
   0.07705839 -0.07705839 -0.01541168       0.047
   0.06164671 -0.06164671  0.00000000       0.023
   0.00000000  0.00000000  0.09247007       0.012
  -0.01541168  0.01541168  0.10788175       0.047
   0.09247007 -0.09247007  0.00000000       0.023
   0.00000000  0.00000000  0.12329343       0.006
  -0.00000000  0.03082336  0.06164671       0.047
  -0.01541168  0.04623504  0.07705839       0.094
   0.09247007 -0.06164671 -0.03082336       0.047
   0.00000000  0.03082336  0.09247007       0.047
   0.10788175 -0.07705839 -0.01541168       0.094
   0.09247007 -0.06164671 -0.00000000       0.047
   0.12329343 -0.09247007  0.00000000       0.023
   0.12329343 -0.06164671  0.00000000       0.012

 k-points in reciprocal lattice and weights: KPOINTS
   0.00000000  0.00000000  0.00000000       0.002
   0.12500000  0.00000000  0.00000000       0.016
   0.25000000  0.00000000  0.00000000       0.016
   0.37500000  0.00000000  0.00000000       0.016
   0.50000000  0.00000000  0.00000000       0.008
   0.12500000  0.12500000  0.00000000       0.012
   0.25000000  0.12500000  0.00000000       0.047
   0.37500000  0.12500000  0.00000000       0.047
   0.50000000  0.12500000  0.00000000       0.047
  -0.37500000  0.12500000  0.00000000       0.047
  -0.25000000  0.12500000  0.00000000       0.047
  -0.12500000  0.12500000  0.00000000       0.023
   0.25000000  0.25000000  0.00000000       0.012
   0.37500000  0.25000000  0.00000000       0.047
   0.50000000  0.25000000  0.00000000       0.047
  -0.37500000  0.25000000  0.00000000       0.047
  -0.25000000  0.25000000  0.00000000       0.023
   0.37500000  0.37500000  0.00000000       0.012
   0.50000000  0.37500000  0.00000000       0.047
  -0.37500000  0.37500000  0.00000000       0.023
   0.50000000  0.50000000  0.00000000       0.006
   0.37500000  0.25000000  0.12500000       0.047
   0.50000000  0.25000000  0.12500000       0.094
  -0.37500000  0.25000000  0.12500000       0.047
   0.50000000  0.37500000  0.12500000       0.047
  -0.37500000  0.37500000  0.12500000       0.094
  -0.25000000  0.37500000  0.12500000       0.047
  -0.37500000  0.50000000  0.12500000       0.023
  -0.25000000  0.50000000  0.25000000       0.012

 position of ions in fractional coordinates (direct lattice)
   0.25000019  0.25000019  0.25000019
   0.00000000  0.00000000  0.00000000
   0.50000038  0.50000038  0.50000038
   0.74999931  0.74999931  0.74999931

 position of ions in cartesian coordinates  (Angst):
   2.02768459  2.02768459  2.02768459
   0.00000000  0.00000000  0.00000000
   4.05536918  4.05536918  4.05536918
   6.08304363  6.08304363  6.08304363

 k-point  1 :   0.0000 0.0000 0.0000  plane waves:    3647
 k-point  2 :   0.1250 0.0000 0.0000  plane waves:    3605
 k-point  3 :   0.2500 0.0000 0.0000  plane waves:    3602
 k-point  4 :   0.3750 0.0000 0.0000  plane waves:    3597
 k-point  5 :   0.5000 0.0000 0.0000  plane waves:    3600
 k-point  6 :   0.1250 0.1250 0.0000  plane waves:    3599
 k-point  7 :   0.2500 0.1250 0.0000  plane waves:    3601
 k-point  8 :   0.3750 0.1250 0.0000  plane waves:    3596
 k-point  9 :   0.5000 0.1250 0.0000  plane waves:    3594
 k-point 10 :  -0.3750 0.1250 0.0000  plane waves:    3590
 k-point 11 :  -0.2500 0.1250 0.0000  plane waves:    3598
 k-point 12 :  -0.1250 0.1250 0.0000  plane waves:    3601
 k-point 13 :   0.2500 0.2500 0.0000  plane waves:    3591
 k-point 14 :   0.3750 0.2500 0.0000  plane waves:    3582
 k-point 15 :   0.5000 0.2500 0.0000  plane waves:    3586
 k-point 16 :  -0.3750 0.2500 0.0000  plane waves:    3595
 k-point 17 :  -0.2500 0.2500 0.0000  plane waves:    3583
 k-point 18 :   0.3750 0.3750 0.0000  plane waves:    3579
 k-point 19 :   0.5000 0.3750 0.0000  plane waves:    3585
 k-point 20 :  -0.3750 0.3750 0.0000  plane waves:    3580
 k-point 21 :   0.5000 0.5000 0.0000  plane waves:    3572
 k-point 22 :   0.3750 0.2500 0.1250  plane waves:    3598
 k-point 23 :   0.5000 0.2500 0.1250  plane waves:    3591
 k-point 24 :  -0.3750 0.2500 0.1250  plane waves:    3600
 k-point 25 :   0.5000 0.3750 0.1250  plane waves:    3589
 k-point 26 :  -0.3750 0.3750 0.1250  plane waves:    3591
 k-point 27 :  -0.2500 0.3750 0.1250  plane waves:    3589
 k-point 28 :  -0.3750 0.5000 0.1250  plane waves:    3576
 k-point 29 :  -0.2500 0.5000 0.2500  plane waves:    3636

 maximum and minimum number of plane-waves per node :       529      501

 maximum number of plane-waves:      3647
 maximum index in each direction:
   IXMAX=   11   IYMAX=   10   IZMAX=   10
   IXMIN=  -11   IYMIN=  -11   IZMIN=  -10

 parallel 3D FFT for wavefunctions:
    minimum data exchange during FFTs selected (reduces bandwidth)
 parallel 3D FFT for charge:
    minimum data exchange during FFTs selected (reduces bandwidth)

 Broyden mixing: mesh for mixing (old mesh)
   NGX = 21   NGY = 21   NGZ = 21
  (NGX  = 96   NGY  = 96   NGZ  = 96)
  gives a total of   9261 points

 initial charge density was supplied:
 charge density of overlapping atoms calculated
 number of electron      38.0000000 magnetization
 keeping initial charge density in first step

 Maximum index for augmentation-charges         5420 (set IRDMAX)

 First call to EWALD:  gamma=   0.347
 Maximum number of real-space cells 3x 3x 3
 Maximum number of reciprocal cells 3x 3x 3

--------------------------------------- Iteration      1(   1)  ---------------------------------------

 eigenvalue-minimisations  :  1366
 total energy-change (2. order) : 0.3759989E+03  (-0.1957067E+04)
 number of electron      38.0000000 magnetization
 augmentation part       38.0000000 magnetization

 Free energy of the ion-electron system (eV)
  alpha Z        PSCENC =       106.83457713
  Ewald energy   TEWEN  =     -2478.64097261
  -Hartree energ DENC   =     -1198.85411072
  -exchange      EXHF   =         0.00000000
  -V(xc)+E(xc)   XCENC  =       127.03857069
  PAW double counting   =      3185.16912008    -3328.20531600
  entropy T*S    EENTRO =        -0.00170732
  eigenvalues    EBANDS =      -191.12859580
  atomic energy  EATOM  =      4153.78731487
  Solvation  Ediel_sol  =         0.00000000
  free energy    TOTEN  =       375.99888032 eV

  energy without entropy =      376.00058764  energy(sigma->0) =      375.99973398

[...]

 eigenvalue-minimisations  :  1390
 total energy-change (2. order) :-0.3496585E+03  (-0.3458501E+03)
 number of electron      38.0000000 magnetization
 augmentation part       38.0000000 magnetization

[...]

 Broyden mixing:
  rms(total) = 0.34741E+00    rms(broyden)= 0.34741E+00
  rms(prec ) = 0.84296E+00
  weight for this iteration     100.00

[...]

 eigenvalues of (default mixing * dielectric matrix)
  average eigenvalue GAMMA=   2.1160
  2.1160

[...]

 eigenvalue-minimisations  :  1654
 total energy-change (2. order) : 0.2622291E-05  (-0.2275435E-05)
 number of electron      37.9999999 magnetization
 augmentation part       14.6122003 magnetization

[...]

 Broyden mixing:
  rms(total) = 0.17021E-04    rms(broyden)= 0.17021E-04
  rms(prec ) = 0.26284E-04
  weight for this iteration     100.00

 eigenvalues of (default mixing * dielectric matrix)
  average eigenvalue GAMMA=   1.7213
  3.0185  2.5341  2.0407  2.0407  1.3723  1.3723  0.9957  1.0585  1.0585

[...]

--------------------------------------- Iteration      1(  15)  ---------------------------------------

 eigenvalue-minimisations  :  1073
 total energy-change (2. order) :-0.1149601E-08  (-0.5331159E-09)
 number of electron      37.9999999 magnetization
 augmentation part       14.6121797 magnetization

 Free energy of the ion-electron system (eV)
  alpha Z        PSCENC =       106.83457713
  Ewald energy   TEWEN  =     -2478.64097261
  -Hartree energ DENC   =     -1195.19695648
  -exchange      EXHF   =         0.00000000
  -V(xc)+E(xc)   XCENC  =       126.97295098
  PAW double counting   =      3311.27664974    -3456.82426345
  entropy T*S    EENTRO =        -0.00015238
  eigenvalues    EBANDS =      -577.11515563
  atomic energy  EATOM  =      4153.78731487
  Solvation  Ediel_sol  =         0.00000000
  free energy    TOTEN  =        -8.90600783 eV

  energy without entropy =       -8.90585545  energy(sigma->0) =       -8.90593164

 average (electrostatic) potential at core
  the test charge radii are     1.0856  0.9254  1.1097
  (the norm of the test charge is              1.0000)
       1-107.3143       2 -48.1832       3 -48.1832       4 -37.8999

 E-fermi :   2.1879     XC(G=0):  -7.9616     alpha+bet : -7.7781

 k-point     1 :       0.0000    0.0000    0.0000
  band No.  band energies     occupation
      1     -25.6066      2.00000
      2     -22.3841      2.00000
      3     -22.3841      2.00000
      4     -22.3841      2.00000
      5     -22.3773      2.00000
      6     -22.3773      2.00000
      7     -22.3773      2.00000
      8     -19.1100      2.00000
      9     -19.1100      2.00000
     10     -19.1100      2.00000
     11     -19.1087      2.00000
     12     -19.1087      2.00000
     13      -9.7505      2.00000
     14      -9.7505      2.00000
     15      -9.7505      2.00000
     16      -7.2823      2.00000
     17       2.0110      2.00000
     18       2.1725      1.33593
     19       2.1725      1.33593
     20       2.1725      1.33569
     21       4.5399      0.00000
     22       4.5399      0.00000
     23       4.5399      0.00000

[...]

 k-point    29 :      -0.2500    0.5000    0.2500
  band No.  band energies     occupation
      1     -25.6062      2.00000
      2     -22.3855      2.00000
      3     -22.3841      2.00000
      4     -22.3808      2.00000
      5     -22.3808      2.00000
      6     -22.3763      2.00000
      7     -22.3761      2.00000
      8     -19.1102      2.00000
      9     -19.1102      2.00000
     10     -19.1096      2.00000
     11     -19.1086      2.00000
     12     -19.1085      2.00000
     13      -9.7769      2.00000
     14      -9.7769      2.00000
     15      -9.7718      2.00000
     16      -7.0893      2.00000
     17       0.7996      2.00000
     18       0.7996      2.00000
     19       1.0761      2.00000
     20       4.9989      0.00000
     21       4.9989      0.00000
     22       5.0338      0.00000
     23       5.5821      0.00000

 soft charge-density along one line, spin component           1
         0         1         2         3         4         5         6         7         8         9
 total charge-density along one line

------------------------ aborting loop because EDIFF is reached ----------------------------------------

  FORCE on cell =-STRESS in cart. coord.  units (eV):
  Direction    XX          YY          ZZ          XY          YZ          ZX
  Alpha Z   106.83458   106.83458   106.83458
  Ewald    -826.21432  -826.21432  -826.21432    -0.00028    -0.00028    -0.00028
  Hartree   398.39913   398.39913   398.39913    -0.00017    -0.00017    -0.00017
  E(xc)    -180.54482  -180.54482  -180.54482     0.00002     0.00002     0.00002
  Local     -96.71849   -96.71849   -96.71849     0.00042     0.00042     0.00042
  n-local    17.62404    17.96091    14.86509     1.84405    -1.47425     0.81319
  augment   217.28970   217.28970   217.28970     0.00003     0.00003     0.00003
  Kinetic   364.96627   364.70168   362.75461     3.08359    -2.04282     1.41047
  Fock        0.00000     0.00000     0.00000     0.00000     0.00000     0.00000
  Total       0.00330     0.00330     0.00330     0.00000     0.00000     0.00000
  in kB       0.03968     0.03968     0.03968     0.00000     0.00000     0.00000

 VOLUME and BASIS-vectors are now :
  energy-cutoff  :      520.00
  volume of cell :      133.39
      direct lattice vectors                 reciprocal lattice vectors
     0.000000000  4.055366141  4.055366141    -0.123293430  0.123293430  0.123293430
     4.055366141  0.000000000  4.055366141     0.123293430 -0.123293430  0.123293430
     4.055366141  4.055366141  0.000000000     0.123293430  0.123293430 -0.123293430

  length of vectors
     5.735153797  5.735153797  5.735153797     0.213550484  0.213550484  0.213550484

 FORCES acting on ions
    electron-ion (+dipol)            ewald-force                    non-local-force                 convergence-correction
   -.731E-03 -.731E-03 -.681E-03   -.433E-03 -.433E-03 -.433E-03   -.233E-20 0.762E-20 -.572E-20   0.306E-05 0.306E-05 0.308E-05
   0.726E-04 0.726E-04 0.694E-04   -.193E-04 -.193E-04 -.193E-04   0.694E-17 0.520E-17 0.954E-17   0.154E-06 0.154E-06 0.154E-06
   -.387E-03 -.387E-03 -.391E-03   -.385E-03 -.385E-03 -.385E-03   -.520E-17 -.867E-17 -.683E-17   0.530E-06 0.530E-06 0.530E-06
   0.373E-02 0.373E-02 0.376E-02   0.838E-03 0.838E-03 0.838E-03   -.136E-19 0.169E-20 -.169E-20   -.228E-05 -.228E-05 -.229E-05
   0.268E-02 0.268E-02 0.276E-02   -.570E-15 -.557E-15 -.124E-14   0.172E-17 -.346E-17 0.270E-17   0.146E-05 0.146E-05 0.147E-05

 POSITION                                       TOTAL-FORCE (eV/Angst)
      2.02768      2.02768      2.02768        -0.000000      0.000000     -0.000000
      0.00000      0.00000      0.00000        -0.000000     -0.000000     -0.000000
      4.05537      4.05537      4.05537        -0.000000      0.000000      0.000000
      6.08304      6.08304      6.08304         0.000000     -0.000000      0.000000
    total drift:                                0.002681      0.002681      0.002760

  FREE ENERGIE OF THE ION-ELECTRON SYSTEM (eV)
  free  energy   TOTEN  =        -8.90600783 eV

  energy  without entropy=       -8.90585545  energy(sigma->0) =       -8.90593164