 vasp.5.4.4.18Apr17-6-g9f103f2a35 (build Jun 23 2019 17:35:09) complex

 executed on             LinuxIFC date 2020.01.14  23:23:07

 INCAR:
 POTCAR:    PAW_PBE Cs_sv 08Apr2002
 POTCAR:    PAW_PBE K_sv 06Sep2000
 POTCAR:    PAW_PBE Sb 06Sep2000

 POTCAR:    PAW_PBE Cs_sv 08Apr2002
   VRHFIN =Cs: 5s5p6s

   TITEL  = PAW_PBE Cs_sv 08Apr2002
   POMASS =  132.900; ZVAL   =    9.000    mass and valenz
   ENMAX  =  220.318; ENMIN  =  165.238 eV

 POTCAR:    PAW_PBE K_sv 06Sep2000
   VRHFIN =K:  3s3p4s

   TITEL  = PAW_PBE K_sv 06Sep2000
   POMASS =   39.098; ZVAL   =    9.000    mass and valenz
   ENMAX  =  259.264; ENMIN  =  194.448 eV

 POTCAR:    PAW_PBE Sb 06Sep2000
   VRHFIN =Sb: s2p3

   TITEL  = PAW_PBE Sb 06Sep2000
   POMASS =  121.750; ZVAL   =    5.000    mass and valenz
   ENMAX  =  172.069; ENMIN  =  129.052 eV

  PAW_PBE Cs_sv 08Apr2002               :
  PAW_PBE K_sv 06Sep2000                :
  PAW_PBE Sb 06Sep2000                  :

 POSCAR: Cs Sb K
  positions in direct lattice
 exchange correlation table for  LEXCH =        8
   RHO(1)=    0.500       N(1)  =     2000
   RHO(2)=  100.500       N(2)  =     4000

 ion  position               nearest neighbor table
   1  0.500  0.000  0.500-
   2  0.750  0.500  0.250-   4 3.79   4 3.79   4 3.79   4 3.79
   3  0.250  0.500  0.750-   4 3.79   4 3.79   4 3.79   4 3.79
   4  0.000  0.000  0.000-   2 3.79   3 3.79   2 3.79   3 3.79   2 3.79   3 3.79   2 3.79   3 3.79

  LATTYP: Found a face centered cubic cell.
 ALAT       =     8.7481320000

  Lattice vectors:

 A1 = (  -4.3740660000,   0.0000000000,  -4.3740660000)
 A2 = (   0.0000000000,  -4.3740660000,  -4.3740660000)
 A3 = (  -4.3740660000,  -4.3740660000,   0.0000000000)

Analysis of symmetry for initial positions (statically):
 Subroutine PRICEL returns:
 Original cell was already a primitive cell.

 Routine SETGRP: Setting up the symmetry group for a
 face centered cubic supercell.

 Subroutine GETGRP returns: Found 48 space group operations
 (whereof 48 operations were pure point group operations)
 out of a pool of 48 trial point group operations.

The static configuration has the point symmetry O_h .

Analysis of symmetry for dynamics (positions and initial velocities):
 Subroutine PRICEL returns:
 Original cell was already a primitive cell.

 Routine SETGRP: Setting up the symmetry group for a
 face centered cubic supercell.

 Subroutine GETGRP returns: Found 48 space group operations
 (whereof 48 operations were pure point group operations)
 out of a pool of 48 trial point group operations.

The dynamic configuration has the point symmetry O_h .

 Subroutine INISYM returns: Found 48 space group operations
 (whereof 48 operations are pure point group operations),
 and found     1 'primitive' translations

 KPOINTS: KPOINTS

Automatic generation of k-mesh.
Space group operators:
 irot       det(A)        alpha          n_x          n_y          n_z        tau_x        tau_y        tau_z
    1     1.000000     0.000000     1.000000     0.000000     0.000000     0.000000     0.000000     0.000000
    2    -1.000000     0.000000     1.000000     0.000000     0.000000     0.000000     0.000000     0.000000
    3     1.000000   120.000000     0.577350     0.577350     0.577350     0.000000     0.000000     0.000000
    4    -1.000000   120.000000     0.577350     0.577350     0.577350     0.000000     0.000000     0.000000
    5     1.000000   120.000000    -0.577350    -0.577350    -0.577350     0.000000     0.000000     0.000000
    6    -1.000000   120.000000    -0.577350    -0.577350    -0.577350     0.000000     0.000000     0.000000
    7     1.000000    90.000000     0.000000     0.000000     1.000000     0.000000     0.000000     0.000000
    8    -1.000000    90.000000     0.000000     0.000000     1.000000     0.000000     0.000000     0.000000
    9     1.000000   180.000000     0.707107     0.000000     0.707107     0.000000     0.000000     0.000000
   10    -1.000000   180.000000     0.707107     0.000000     0.707107     0.000000     0.000000     0.000000
   11     1.000000    90.000000    -1.000000     0.000000     0.000000     0.000000     0.000000     0.000000
   12    -1.000000    90.000000    -1.000000     0.000000     0.000000     0.000000     0.000000     0.000000
   13     1.000000   180.000000     0.000000     0.000000     1.000000     0.000000     0.000000     0.000000
   14    -1.000000   180.000000     0.000000     0.000000     1.000000     0.000000     0.000000     0.000000
   15     1.000000   120.000000    -0.577350     0.577350    -0.577350     0.000000     0.000000     0.000000
   16    -1.000000   120.000000    -0.577350     0.577350    -0.577350     0.000000     0.000000     0.000000
   17     1.000000   120.000000    -0.577350     0.577350     0.577350     0.000000     0.000000     0.000000
   18    -1.000000   120.000000    -0.577350     0.577350     0.577350     0.000000     0.000000     0.000000
   19     1.000000    90.000000     0.000000     0.000000    -1.000000     0.000000     0.000000     0.000000
   20    -1.000000    90.000000     0.000000     0.000000    -1.000000     0.000000     0.000000     0.000000
   21     1.000000    90.000000     0.000000     1.000000     0.000000     0.000000     0.000000     0.000000
   22    -1.000000    90.000000     0.000000     1.000000     0.000000     0.000000     0.000000     0.000000
   23     1.000000   180.000000     0.000000     0.707107     0.707107     0.000000     0.000000     0.000000
   24    -1.000000   180.000000     0.000000     0.707107     0.707107     0.000000     0.000000     0.000000
   25     1.000000   120.000000     0.577350    -0.577350    -0.577350     0.000000     0.000000     0.000000
   26    -1.000000   120.000000     0.577350    -0.577350    -0.577350     0.000000     0.000000     0.000000
   27     1.000000   120.000000     0.577350     0.577350    -0.577350     0.000000     0.000000     0.000000
   28    -1.000000   120.000000     0.577350     0.577350    -0.577350     0.000000     0.000000     0.000000
   29     1.000000   180.000000     0.000000     1.000000     0.000000     0.000000     0.000000     0.000000
   30    -1.000000   180.000000     0.000000     1.000000     0.000000     0.000000     0.000000     0.000000
   31     1.000000    90.000000     1.000000     0.000000     0.000000     0.000000     0.000000     0.000000
   32    -1.000000    90.000000     1.000000     0.000000     0.000000     0.000000     0.000000     0.000000
   33     1.000000   180.000000     0.707107     0.707107     0.000000     0.000000     0.000000     0.000000
   34    -1.000000   180.000000     0.707107     0.707107     0.000000     0.000000     0.000000     0.000000
   35     1.000000    90.000000     0.000000    -1.000000     0.000000     0.000000     0.000000     0.000000
   36    -1.000000    90.000000     0.000000    -1.000000     0.000000     0.000000     0.000000     0.000000
   37     1.000000   120.000000     0.577350    -0.577350     0.577350     0.000000     0.000000     0.000000
   38    -1.000000   120.000000     0.577350    -0.577350     0.577350     0.000000     0.000000     0.000000
   39     1.000000   180.000000     1.000000     0.000000     0.000000     0.000000     0.000000     0.000000
   40    -1.000000   180.000000     1.000000     0.000000     0.000000     0.000000     0.000000     0.000000
   41     1.000000   120.000000    -0.577350    -0.577350     0.577350     0.000000     0.000000     0.000000
   42    -1.000000   120.000000    -0.577350    -0.577350     0.577350     0.000000     0.000000     0.000000
   43     1.000000   180.000000     0.707107     0.000000    -0.707107     0.000000     0.000000     0.000000
   44    -1.000000   180.000000     0.707107     0.000000    -0.707107     0.000000     0.000000     0.000000
   45     1.000000   180.000000     0.707107    -0.707107     0.000000     0.000000     0.000000     0.000000
   46    -1.000000   180.000000     0.707107    -0.707107     0.000000     0.000000     0.000000     0.000000
   47     1.000000   180.000000     0.000000    -0.707107     0.707107     0.000000     0.000000     0.000000
   48    -1.000000   180.000000     0.000000    -0.707107     0.707107     0.000000     0.000000     0.000000

 Subroutine IBZKPT returns following result:

 Found     29 irreducible k-points:

 Following reciprocal coordinates:
            Coordinates               Weight
  0.000000  0.000000  0.000000      1.000000
  0.125000  0.000000  0.000000      8.000000
  0.250000  0.000000  0.000000      8.000000
  0.375000  0.000000  0.000000      8.000000
  0.500000  0.000000  0.000000      4.000000
  0.000000  0.125000  0.000000      6.000000
  0.125000  0.125000  0.000000     24.000000
  0.250000  0.125000  0.000000     24.000000
  0.375000  0.125000  0.000000     24.000000
  0.500000  0.125000  0.000000     24.000000
 -0.375000  0.125000  0.000000     24.000000
 -0.250000  0.125000  0.000000     12.000000
  0.000000  0.250000  0.000000      6.000000
  0.125000  0.250000  0.000000     24.000000
  0.250000  0.250000  0.000000     24.000000
  0.375000  0.250000  0.000000     24.000000
  0.500000  0.250000  0.000000     12.000000
  0.000000  0.375000  0.000000      6.000000
  0.125000  0.375000  0.000000     24.000000
  0.250000  0.375000  0.000000     12.000000
  0.000000  0.500000  0.000000      3.000000
  0.125000  0.125000  0.125000     24.000000
  0.250000  0.125000  0.125000     48.000000
  0.375000  0.125000  0.125000     24.000000
  0.125000  0.250000  0.125000     24.000000
  0.250000  0.250000  0.125000     48.000000
  0.375000  0.250000  0.125000     24.000000
  0.125000  0.375000  0.125000     12.000000
  0.250000  0.250000  0.250000      6.000000

 Following cartesian coordinates:
            Coordinates               Weight
  0.000000  0.000000  0.000000      1.000000
  0.014289 -0.014289 -0.014289      8.000000
  0.028578 -0.028578 -0.028578      8.000000
  0.042866 -0.042866 -0.042866      8.000000
  0.057155 -0.057155 -0.057155      4.000000
  0.000000  0.000000 -0.028578      6.000000
  0.014289 -0.014289 -0.042866     24.000000
  0.028578 -0.028578 -0.057155     24.000000
  0.042866 -0.042866 -0.071444     24.000000
  0.057155 -0.057155 -0.085733     24.000000
 -0.042866  0.042866  0.014289     24.000000
 -0.028578  0.028578  0.000000     12.000000
  0.000000  0.000000 -0.057155      6.000000
  0.014289 -0.014289 -0.071444     24.000000
  0.028578 -0.028578 -0.085733     24.000000
  0.042866 -0.042866 -0.100021     24.000000
  0.057155 -0.057155 -0.114310     12.000000
  0.000000  0.000000 -0.085733      6.000000
  0.014289 -0.014289 -0.100021     24.000000
  0.028578 -0.028578 -0.114310     12.000000
  0.000000  0.000000 -0.114310      3.000000
  0.028578  0.000000 -0.057155     24.000000
  0.042866 -0.014289 -0.071444     48.000000
  0.057155 -0.028578 -0.085733     24.000000
  0.028578  0.000000 -0.085733     24.000000
  0.042866 -0.014289 -0.100021     48.000000
  0.057155 -0.028578 -0.114310     24.000000
  0.028578  0.000000 -0.114310     12.000000
  0.057155  0.000000 -0.114310      6.000000

 SYSTEM =  unknown system
 POSCAR =  Cs Sb K

 Startparameter for this run:
[...]
   0.12500000  0.12500000  0.00000000       0.047
   0.25000000  0.12500000  0.00000000       0.047
   0.37500000  0.12500000  0.00000000       0.047
   0.50000000  0.12500000  0.00000000       0.047
  -0.37500000  0.12500000  0.00000000       0.047
  -0.25000000  0.12500000  0.00000000       0.023
   0.00000000  0.25000000  0.00000000       0.012
   0.12500000  0.25000000  0.00000000       0.047
   0.25000000  0.25000000  0.00000000       0.047
   0.37500000  0.25000000  0.00000000       0.047
   0.50000000  0.25000000  0.00000000       0.023
   0.00000000  0.37500000  0.00000000       0.012
   0.12500000  0.37500000  0.00000000       0.047
   0.25000000  0.37500000  0.00000000       0.023
   0.00000000  0.50000000  0.00000000       0.006
   0.12500000  0.12500000  0.12500000       0.047
   0.25000000  0.12500000  0.12500000       0.094
   0.37500000  0.12500000  0.12500000       0.047
   0.12500000  0.25000000  0.12500000       0.047
   0.25000000  0.25000000  0.12500000       0.094
   0.37500000  0.25000000  0.12500000       0.047
   0.12500000  0.37500000  0.12500000       0.023
   0.25000000  0.25000000  0.25000000       0.012

 position of ions in fractional coordinates (direct lattice)
   0.50000046  0.00000000  0.50000046
   0.74999897  0.49999931  0.24999966
   0.24999966  0.49999931  0.74999897
   0.00000000  0.00000000  0.00000000

 position of ions in cartesian coordinates  (Angst):
   4.37407000  0.00000000  0.00000000
   2.18703000 -2.18703000 -2.18703000
   2.18703000  2.18703000 -2.18703000
   0.00000000  0.00000000  0.00000000

 k-point  1 :   0.0000 0.0000 0.0000  plane waves:    4573
 k-point  2 :   0.1250 0.0000 0.0000  plane waves:    4525
 k-point  3 :   0.2500 0.0000 0.0000  plane waves:    4513
 k-point  4 :   0.3750 0.0000 0.0000  plane waves:    4507
 k-point  5 :   0.5000 0.0000 0.0000  plane waves:    4476
 k-point  6 :   0.0000 0.1250 0.0000  plane waves:    4517
 k-point  7 :   0.1250 0.1250 0.0000  plane waves:    4523
 k-point  8 :   0.2500 0.1250 0.0000  plane waves:    4538
 k-point  9 :   0.3750 0.1250 0.0000  plane waves:    4494
 k-point 10 :   0.5000 0.1250 0.0000  plane waves:    4501
 k-point 11 :  -0.3750 0.1250 0.0000  plane waves:    4522
 k-point 12 :  -0.2500 0.1250 0.0000  plane waves:    4529
 k-point 13 :   0.0000 0.2500 0.0000  plane waves:    4552
 k-point 14 :   0.1250 0.2500 0.0000  plane waves:    4517
 k-point 15 :   0.2500 0.2500 0.0000  plane waves:    4491
 k-point 16 :   0.3750 0.2500 0.0000  plane waves:    4501
 k-point 17 :   0.5000 0.2500 0.0000  plane waves:    4514
 k-point 18 :   0.0000 0.3750 0.0000  plane waves:    4512
 k-point 19 :   0.1250 0.3750 0.0000  plane waves:    4505
 k-point 20 :   0.2500 0.3750 0.0000  plane waves:    4506
 k-point 21 :   0.0000 0.5000 0.0000  plane waves:    4456
 k-point 22 :   0.1250 0.1250 0.1250  plane waves:    4522
 k-point 23 :   0.2500 0.1250 0.1250  plane waves:    4509
 k-point 24 :   0.3750 0.1250 0.1250  plane waves:    4486
 k-point 25 :   0.1250 0.2500 0.1250  plane waves:    4484
 k-point 26 :   0.2500 0.2500 0.1250  plane waves:    4496
 k-point 27 :   0.3750 0.2500 0.1250  plane waves:    4510
 k-point 28 :   0.1250 0.3750 0.1250  plane waves:    4504
 k-point 29 :   0.2500 0.2500 0.2500  plane waves:    4488

 maximum and minimum number of plane-waves per node :       662      620

 maximum number of plane-waves:      4573
 maximum index in each direction:
   IXMAX=   11   IYMAX=   11   IZMAX=   11
   IXMIN=  -11   IYMIN=  -11   IZMIN=  -11

 parallel 3D FFT for wavefunctions:
    minimum data exchange during FFTs selected (reduces bandwidth)
 parallel 3D FFT for charge:
    minimum data exchange during FFTs selected (reduces bandwidth)

 Broyden mixing: mesh for mixing (old mesh)
   NGX = 23   NGY = 23   NGZ = 23
  (NGX  = 96   NGY  = 96   NGZ  = 96)
  gives a total of  12167 points

 initial charge density was supplied:
 charge density of overlapping atoms calculated
 number of electron      32.0000000 magnetization
 keeping initial charge density in first step

 Maximum index for augmentation-charges         5442 (set IRDMAX)

 First call to EWALD:  gamma=   0.322
 Maximum number of real-space cells 3x 3x 3
 Maximum number of reciprocal cells 3x 3x 3

--------------------------------------- Iteration      1(   1)  ---------------------------------------

 eigenvalue-minimisations  :  1160
 total energy-change (2. order) : 0.2316642E+03  (-0.1336603E+04)
 number of electron      32.0000000 magnetization
 augmentation part       32.0000000 magnetization

 Free energy of the ion-electron system (eV)
  alpha Z        PSCENC =        88.62988485
  Ewald energy   TEWEN  =     -1569.93787712
  -Hartree energ DENC   =      -540.40076287
  -exchange      EXHF   =         0.00000000
  -V(xc)+E(xc)   XCENC  =        35.20911588
  PAW double counting   =      1776.42413506    -1705.39518631
  entropy T*S    EENTRO =        -0.00280476
  eigenvalues    EBANDS =      -108.50586484
  atomic energy  EATOM  =      2255.64356714
  Solvation  Ediel_sol  =         0.00000000
  free energy    TOTEN  =       231.66420703 eV

  energy without entropy =      231.66701179  energy(sigma->0) =      231.66560941

[...]

 eigenvalue-minimisations  :  1468
 total energy-change (2. order) :-0.2218534E+03  (-0.2154588E+03)
 number of electron      32.0000000 magnetization
 augmentation part       32.0000000 magnetization

[...]

 Broyden mixing:
  rms(total) = 0.47445E+00    rms(broyden)= 0.47445E+00
  rms(prec ) = 0.11570E+01
  weight for this iteration     100.00

[...]

 eigenvalues of (default mixing * dielectric matrix)
  average eigenvalue GAMMA=   1.5790
  1.5790

[...]

 average (electrostatic) potential at core
  the test charge radii are     1.1312  1.1045  1.1712
  (the norm of the test charge is              1.0000)
       1 -50.7912       2 -36.3923       3 -36.3923       4 -89.0105

 E-fermi :   2.0780     XC(G=0):  -7.7043     alpha+bet : -7.6212

 k-point     1 :       0.0000    0.0000    0.0000
  band No.  band energies     occupation
      1     -29.1257      2.00000
      2     -29.1143      2.00000
      3     -21.0636      2.00000
      4     -12.6658      2.00000
      5     -12.6658      2.00000
      6     -12.6658      2.00000
      7     -12.6090      2.00000
      8     -12.6090      2.00000
      9     -12.6090      2.00000
     10      -7.9146      2.00000
     11      -7.9146      2.00000
     12      -7.9146      2.00000
     13      -5.4062      2.00000
     14       1.8086      2.00000
     15       1.8086      2.00000
     16       1.8086      2.00000
     17       2.6719      0.00000
     18       3.9948      0.00000
     19       3.9948      0.00000
     20       4.5053      0.00000

[...]

 soft charge-density along one line, spin component           1
         0         1         2         3         4         5         6         7         8         9
 total charge-density along one line

------------------------ aborting loop because EDIFF is reached ----------------------------------------

  FORCE on cell =-STRESS in cart. coord.  units (eV):
  Direction    XX          YY          ZZ          XY          YZ          ZX
  Alpha Z    88.62988    88.62988    88.62988
  Ewald    -523.31307  -523.31307  -523.31307    -0.00000     0.00000     0.00041
  Hartree   175.82965   175.82965   175.82965    -0.00000     0.00000     0.00004
  E(xc)    -128.27225  -128.27225  -128.27226     0.00000    -0.00000     0.00000
  Local      24.52999    24.52999    24.52999    -0.00000     0.00000    -0.00032
  n-local   -21.26499   -21.24571   -22.35908     0.90876    -0.47517     0.71947
  augment   -13.49021   -13.49021   -13.49021    -0.00000     0.00000     0.00000
  Kinetic   398.21312   398.70747   396.39916     2.14464    -1.27240     1.82501
  Fock        0.00000     0.00000     0.00000     0.00000     0.00000     0.00000
  Total       0.06398     0.06398     0.06398     0.00000    -0.00000     0.00000
  in kB       0.61247     0.61247     0.61247     0.00000    -0.00000     0.00000

 VOLUME and BASIS-vectors are now :
  energy-cutoff  :      520.00
  volume of cell :      167.37
      direct lattice vectors                 reciprocal lattice vectors
     4.374066000 -4.374066000  0.000000000     0.114310118 -0.114310118 -0.114310118
    -4.374066000  0.000000000 -4.374066000     0.000000000  0.000000000 -0.228620236
     4.374066000  4.374066000  0.000000000     0.114310118  0.114310118 -0.114310118

[...]

 FORCES acting on ions
    electron-ion (+dipol)            ewald-force                    non-local-force                 convergence-correction
   -.224E-02 -.304E-13 -.280E-04   -.474E-03 -.478E-14 0.175E-03   0.847E-21 -.847E-21 0.000E+00   0.192E-04 0.152E-13 -.356E-05
   0.222E-02 -.216E-02 -.219E-02   0.253E-03 -.311E-03 -.136E-03   0.520E-17 -.234E-16 0.347E-17   -.110E-04 0.172E-04 0.683E-05
   0.222E-02 0.216E-02 -.219E-02   0.253E-03 0.311E-03 -.136E-03   0.347E-17 0.217E-16 0.104E-16   -.110E-04 -.172E-04 0.683E-05
   0.301E-04 0.914E-13 -.156E-04   -.324E-04 -.145E-14 0.973E-04   -.847E-21 0.000E+00 0.000E+00   -.224E-05 0.276E-14 -.157E-05
   0.222E-02 0.919E-13 -.443E-02   -.164E-15 -.628E-16 0.190E-14   0.867E-17 -.174E-17 0.139E-16   -.500E-05 0.217E-13 0.853E-05

 POSITION                                       TOTAL-FORCE (eV/Angst)
      4.37407      0.00000      0.00000         0.000000      0.000000     -0.000000
      2.18703     -2.18703     -2.18703        -0.000000     -0.000000      0.000000
      2.18703      2.18703     -2.18703         0.000000      0.000000      0.000000
      0.00000      0.00000      0.00000         0.000000      0.000000     -0.000000
    total drift:                                0.002217      0.000000     -0.004416

  FREE ENERGIE OF THE ION-ELECTRON SYSTEM (eV)
  free  energy   TOTEN  =        -8.66424676 eV

  energy  without entropy=       -8.66424676  energy(sigma->0) =       -8.66424676

[...]

 d Force = 0.0000000E+00[ 0.000E+00, 0.000E+00]  d Energy = 0.9920559E-04-0.992E-04
 d Force = 0.0000000E+00[ 0.000E+00, 0.000E+00]  d Ewald  =-0.1210539E+01 0.121E+01

 Steepest descent step on ions:
 trial-energy change:   -0.000099  1 .order   -0.000111   -0.000148   -0.000074
  (g-gl).g = 0.148E-03      g.g   = 0.148E-03  gl.gl    = 0.000E+00
 g(Force)  = 0.282E-38   g(Stress)= 0.148E-03 ortho     = 0.000E+00
 gamma     =   0.00000
 trial     =   1.00000
 opt step  =   1.98594  (harmonic =   1.98594) maximal distance =0.00000000
 next E    =    -8.664394   (d E  =  -0.00015)

[...]

 d Force = 0.0000000E+00[ 0.000E+00, 0.000E+00]  d Energy = 0.2423893E-04-0.242E-04
 d Force = 0.0000000E+00[ 0.000E+00, 0.000E+00]  d Ewald  =-0.1191695E+01 0.119E+01

[...]

 eigenvalue-minimisations  :   744
 total energy-change (2. order) : 0.6921679E-05  (-0.1321965E-05)
 number of electron      32.0000000 magnetization
 augmentation part        0.0938476 magnetization

[...]

 Broyden mixing:
  rms(total) = 0.21229E-03    rms(broyden)= 0.21229E-03
  rms(prec ) = 0.34359E-03
  weight for this iteration     100.00

 eigenvalues of (default mixing * dielectric matrix)
  average eigenvalue GAMMA=   1.4903
  0.9717  1.7496  1.7496

[...]

--------------------------------------- Iteration      4(   5)  ---------------------------------------

 eigenvalue-minimisations  :   724
 total energy-change (2. order) :-0.1146677E-06  (-0.2001627E-06)
 number of electron      32.0000000 magnetization
 augmentation part        0.0936008 magnetization

 Free energy of the ion-electron system (eV)
  alpha Z        PSCENC =        88.25421461
  Ewald energy   TEWEN  =     -1567.71660157
  -Hartree energ DENC   =      -528.59263589
  -exchange      EXHF   =         0.00000000
  -V(xc)+E(xc)   XCENC  =        35.31433573
  PAW double counting   =      1903.34005167    -1833.84336801
  entropy T*S    EENTRO =        -0.00000000
  eigenvalues    EBANDS =      -361.06393258
  atomic energy  EATOM  =      2255.64356714
  Solvation  Ediel_sol  =         0.00000000
  free energy    TOTEN  =        -8.66436888 eV

  energy without entropy =       -8.66436888  energy(sigma->0) =       -8.66436888

 average (electrostatic) potential at core
  the test charge radii are     1.1312  1.1045  1.1712
  (the norm of the test charge is              1.0000)
       1 -50.8154       2 -36.4160       3 -36.4160       4 -89.0320

 E-fermi :   2.0553     XC(G=0):  -7.6883     alpha+bet : -7.5888

[...]

 k-point    29 :       0.2500    0.2500    0.2500
  band No.  band energies     occupation
      1     -29.1427      2.00000
      2     -29.1427      2.00000
      3     -21.0883      2.00000
      4     -12.7210      2.00000
      5     -12.6958      2.00000
      6     -12.6651      2.00000
      7     -12.6651      2.00000
      8     -12.6152      2.00000
      9     -12.6143      2.00000
     10      -7.9561      2.00000
     11      -7.9561      2.00000
     12      -7.9297      2.00000
     13      -5.2607      2.00000
     14       1.2347      2.00000
     15       1.2347      2.00000
     16       1.3863      2.00000
     17       4.1970      0.00000
     18       4.3859      0.00000
     19       4.3859      0.00000
     20       5.2398      0.00000

 soft charge-density along one line, spin component           1
         0         1         2         3         4         5         6         7         8         9
 total charge-density along one line

------------------------ aborting loop because EDIFF is reached ----------------------------------------

  FORCE on cell =-STRESS in cart. coord.  units (eV):
  Direction    XX          YY          ZZ          XY          YZ          ZX
  Alpha Z    88.25421    88.25421    88.25421
  Ewald    -522.57265  -522.57265  -522.57265    -0.00000    -0.00000     0.00041
  Hartree   176.19897   176.19897   176.19897    -0.00000     0.00000     0.00004
  E(xc)    -128.25487  -128.25487  -128.25488     0.00000     0.00000     0.00000
  Local      23.79285    23.79285    23.79285     0.00000    -0.00000    -0.00032
  n-local   -21.23740   -21.21856   -22.33691     0.91503    -0.47882     0.72560
  augment   -13.48230   -13.48230   -13.48230     0.00000    -0.00000     0.00000
  Kinetic   398.10438   398.59271   396.28535     2.14133    -1.26941     1.82126
  Fock        0.00000     0.00000     0.00000     0.00000     0.00000     0.00000
  Total      -0.00059    -0.00059    -0.00059     0.00000     0.00000    -0.00000
  in kB      -0.00563    -0.00563    -0.00563     0.00000     0.00000    -0.00000

 VOLUME and BASIS-vectors are now :
  energy-cutoff  :      520.00
  volume of cell :      168.09
      direct lattice vectors                 reciprocal lattice vectors
     4.380263552 -4.380263552 -0.000000000     0.114148383 -0.114148383 -0.114148383
    -4.380263552  0.000000000 -4.380263552     0.000000000  0.000000000 -0.228296765
     4.380263552  4.380263552  0.000000000     0.114148383  0.114148383 -0.114148383

  length of vectors
     6.194628123  6.194628123  6.194628123     0.197710798  0.228296765  0.197710798

 FORCES acting on ions
    electron-ion (+dipol)            ewald-force                    non-local-force                 convergence-correction
   -.225E-02 -.726E-13 -.279E-04   -.472E-03 0.753E-14 0.175E-03   0.000E+00 -.847E-21 -.800E-23   0.124E-07 0.486E-14 0.219E-08
   0.222E-02 -.217E-02 -.219E-02   0.252E-03 -.310E-03 -.136E-03   -.954E-17 -.130E-16 0.347E-17   -.180E-07 0.222E-07 0.170E-07
   0.222E-02 0.217E-02 -.219E-02   0.252E-03 0.310E-03 -.136E-03   0.134E-16 0.737E-17 0.347E-17   -.180E-07 -.222E-07 0.170E-07
   0.300E-04 0.484E-13 -.155E-04   -.323E-04 -.142E-13 0.970E-04   -.127E-20 0.212E-21 -.235E-23   -.450E-08 0.717E-14 0.106E-08
   0.222E-02 0.550E-12 -.443E-02   -.161E-15 -.111E-15 0.643E-15   0.390E-17 -.564E-17 0.694E-17   -.281E-07 0.274E-13 0.372E-07

 POSITION                                       TOTAL-FORCE (eV/Angst)
      4.38027      0.00000      0.00000         0.000000     -0.000000     -0.000000
      2.19013     -2.19013     -2.19013         0.000000      0.000000      0.000000
      2.19013      2.19013     -2.19013        -0.000000     -0.000000     -0.000000
      0.00000      0.00000     -0.00000         0.000000     -0.000000     -0.000000
    total drift:                                0.002224      0.000000     -0.004432

  FREE ENERGIE OF THE ION-ELECTRON SYSTEM (eV)
  free  energy   TOTEN  =        -8.66436888 eV

  energy  without entropy=       -8.66436888  energy(sigma->0) =       -8.66436888

 d Force = 0.0000000E+00[ 0.000E+00, 0.000E+00]  d Energy =-0.1321135E-05 0.132E-05
 d Force = 0.0000000E+00[ 0.000E+00, 0.000E+00]  d Ewald  = 0.1809587E+00-0.181E+00

 reached required accuracy - stopping structural energy minimisation