 vasp.5.4.4.18Apr17-6-g9f103f2a35 (build Jun 23 2019 17:35:09) complex

 executed on             LinuxIFC date 2020.01.14  23:14:44

 INCAR:
 POTCAR:    PAW_PBE Bi_d 06Sep2000
 POTCAR:    PAW_PBE Cs_sv 08Apr2002
 POTCAR:    PAW_PBE K_sv 06Sep2000

 POTCAR:    PAW_PBE Bi_d 06Sep2000
   VRHFIN =Bi:

   TITEL  = PAW_PBE Bi_d 06Sep2000
   POMASS =  208.980; ZVAL   =   15.000    mass and valenz
   ENMAX  =  242.839; ENMIN  =  182.129 eV

 POTCAR:    PAW_PBE Cs_sv 08Apr2002
   VRHFIN =Cs: 5s5p6s

   TITEL  = PAW_PBE Cs_sv 08Apr2002
   POMASS =  132.900; ZVAL   =    9.000    mass and valenz
   ENMAX  =  220.318; ENMIN  =  165.238 eV

 POTCAR:    PAW_PBE K_sv 06Sep2000
   VRHFIN =K:  3s3p4s

   TITEL  = PAW_PBE K_sv 06Sep2000
   POMASS =   39.098; ZVAL   =    9.000    mass and valenz
   ENMAX  =  259.264; ENMIN  =  194.448 eV

  PAW_PBE Bi_d 06Sep2000                :
  PAW_PBE Cs_sv 08Apr2002               :
  PAW_PBE K_sv 06Sep2000                :

 POSCAR: Cs K Bi
  positions in direct lattice
 exchange correlation table for  LEXCH =        8
   RHO(1)=    0.500       N(1)  =     2000
   RHO(2)=  100.500       N(2)  =     4000

 ion  position               nearest neighbor table
   1  0.250  0.250  0.250-   4 3.85   3 3.85   3 3.85   3 3.85   4 3.85   4 3.85   4 3.85   3 3.85

   2  0.750  0.750  0.750-
   3  0.000  0.000  0.000-   1 3.85   1 3.85   1 3.85   1 3.85
   4  0.500  0.500  0.500-   1 3.85   1 3.85   1 3.85   1 3.85

  LATTYP: Found a face centered cubic cell.
 ALAT       =     8.8857020000

  Lattice vectors:

 A1 = (   0.0000000000,   4.4428510000,   4.4428510000)
 A2 = (   4.4428510000,   0.0000000000,   4.4428510000)
 A3 = (   4.4428510000,   4.4428510000,   0.0000000000)

Analysis of symmetry for initial positions (statically):
 Subroutine PRICEL returns:
 Original cell was already a primitive cell.

 Routine SETGRP: Setting up the symmetry group for a
 face centered cubic supercell.

 Subroutine GETGRP returns: Found 48 space group operations
 (whereof 24 operations were pure point group operations)
 out of a pool of 48 trial point group operations.

The static configuration has the point symmetry T_d .
 The point group associated with its full space group is O_h .

Analysis of symmetry for dynamics (positions and initial velocities):
 Subroutine PRICEL returns:
 Original cell was already a primitive cell.

 Routine SETGRP: Setting up the symmetry group for a
 face centered cubic supercell.

 Subroutine GETGRP returns: Found 48 space group operations
 (whereof 24 operations were pure point group operations)
 out of a pool of 48 trial point group operations.

The dynamic configuration has the point symmetry T_d .
 The point group associated with its full space group is O_h .

 Subroutine INISYM returns: Found 48 space group operations
 (whereof 24 operations are pure point group operations),
 and found     1 'primitive' translations

 KPOINTS: KPOINTS

Automatic generation of k-mesh.
Space group operators:
 irot       det(A)        alpha          n_x          n_y          n_z        tau_x        tau_y        tau_z
    1     1.000000     0.000001     1.000000     0.000000     0.000000     0.000000     0.000000     0.000000
    2     1.000000   120.000000    -0.577350    -0.577350    -0.577350     0.000000     0.000000     0.000000
    3     1.000000   120.000000     0.577350     0.577350     0.577350     0.000000     0.000000     0.000000
    4    -1.000000    90.000000     0.000000     0.000000    -1.000000     0.000000     0.000000     0.000000
    5    -1.000000   180.000000     0.000000     0.707107     0.707107     0.000000     0.000000     0.000000
    6    -1.000000    90.000000     0.000000     1.000000     0.000000     0.000000     0.000000     0.000000
    7     1.000000   180.000000     0.000000     0.000000     1.000000     0.000000     0.000000     0.000000
    8     1.000000   120.000000    -0.577350     0.577350     0.577350     0.000000     0.000000     0.000000
    9     1.000000   120.000000    -0.577350     0.577350    -0.577350     0.000000     0.000000     0.000000
   10    -1.000000    90.000000     0.000000     0.000000     1.000000     0.000000     0.000000     0.000000
   11    -1.000000    90.000000    -1.000000     0.000000     0.000000     0.000000     0.000000     0.000000
   12    -1.000000   180.000000     0.707107     0.000000     0.707107     0.000000     0.000000     0.000000
   13     1.000000   120.000000     0.577350    -0.577350     0.577350     0.000000     0.000000     0.000000
   14     1.000000   120.000000    -0.577350    -0.577350     0.577350     0.000000     0.000000     0.000000
   15     1.000000   180.000000     1.000000     0.000000     0.000000     0.000000     0.000000     0.000000
   16    -1.000000    90.000000     0.000000    -1.000000     0.000000     0.000000     0.000000     0.000000
   17    -1.000000   180.000000     0.707107     0.707107     0.000000     0.000000     0.000000     0.000000
   18    -1.000000    90.000000     1.000000     0.000000     0.000000     0.000000     0.000000     0.000000
   19     1.000000   120.000000     0.577350    -0.577350    -0.577350     0.000000     0.000000     0.000000
   20     1.000000   180.000000     0.000000     1.000000     0.000000     0.000000     0.000000     0.000000
   21     1.000000   120.000000     0.577350     0.577350    -0.577350     0.000000     0.000000     0.000000
   22    -1.000000   180.000000     0.000000    -0.707107     0.707107     0.000000     0.000000     0.000000
   23    -1.000000   180.000000     0.707107    -0.707107     0.000000     0.000000     0.000000     0.000000
   24    -1.000000   180.000000     0.707107     0.000000    -0.707107     0.000000     0.000000     0.000000
   25    -1.000000     0.000001     1.000000     0.000000     0.000000     0.500001     0.500001     0.500001
   26    -1.000000   120.000000    -0.577350    -0.577350    -0.577350     0.500001     0.500001     0.500001
   27    -1.000000   120.000000     0.577350     0.577350     0.577350     0.500001     0.500001     0.500001
   28     1.000000    90.000000     0.000000     0.000000    -1.000000     0.499999     0.500001     0.500001
   29     1.000000   180.000000     0.000000     0.707107     0.707107     0.499999     0.500001     0.500001
   30     1.000000    90.000000     0.000000     1.000000     0.000000     0.499999     0.500001     0.500001
   31    -1.000000   180.000000     0.000000     0.000000     1.000000     0.500001     0.500001     0.499999
   32    -1.000000   120.000000    -0.577350     0.577350     0.577350     0.500001     0.500001     0.499999
   33    -1.000000   120.000000    -0.577350     0.577350    -0.577350     0.500001     0.500001     0.499999
   34     1.000000    90.000000     0.000000     0.000000     1.000000     0.500001     0.499999     0.500001
   35     1.000000    90.000000    -1.000000     0.000000     0.000000     0.500001     0.499999     0.500001
   36     1.000000   180.000000     0.707107     0.000000     0.707107     0.500001     0.499999     0.500001
   37    -1.000000   120.000000     0.577350    -0.577350     0.577350     0.499999     0.500001     0.500001
   38    -1.000000   120.000000    -0.577350    -0.577350     0.577350     0.499999     0.500001     0.500001
   39    -1.000000   180.000000     1.000000     0.000000     0.000000     0.499999     0.500001     0.500001
   40     1.000000    90.000000     0.000000    -1.000000     0.000000     0.500001     0.500001     0.499999
   41     1.000000   180.000000     0.707107     0.707107     0.000000     0.500001     0.500001     0.499999
   42     1.000000    90.000000     1.000000     0.000000     0.000000     0.500001     0.500001     0.499999
   43    -1.000000   120.000000     0.577350    -0.577350    -0.577350     0.500001     0.499999     0.500001
   44    -1.000000   180.000000     0.000000     1.000000     0.000000     0.500001     0.499999     0.500001
   45    -1.000000   120.000000     0.577350     0.577350    -0.577350     0.500001     0.499999     0.500001
   46     1.000000   180.000000     0.000000    -0.707107     0.707107     0.500001     0.500001     0.500001
   47     1.000000   180.000000     0.707107    -0.707107     0.000000     0.500001     0.500001     0.500001
   48     1.000000   180.000000     0.707107     0.000000    -0.707107     0.500001     0.500001     0.500001

 Subroutine IBZKPT returns following result:

 Found     29 irreducible k-points:

 Following reciprocal coordinates:
            Coordinates               Weight
  0.000000  0.000000  0.000000      1.000000
  0.125000  0.000000  0.000000      8.000000
  0.250000  0.000000  0.000000      8.000000
  0.375000  0.000000  0.000000      8.000000
  0.500000  0.000000  0.000000      4.000000
  0.125000  0.125000  0.000000      6.000000
  0.250000  0.125000  0.000000     24.000000
  0.375000  0.125000  0.000000     24.000000
  0.500000  0.125000  0.000000     24.000000
 -0.375000  0.125000  0.000000     24.000000
 -0.250000  0.125000  0.000000     24.000000
 -0.125000  0.125000  0.000000     12.000000
  0.250000  0.250000  0.000000      6.000000
  0.375000  0.250000  0.000000     24.000000
  0.500000  0.250000  0.000000     24.000000
 -0.375000  0.250000  0.000000     24.000000
 -0.250000  0.250000  0.000000     12.000000
  0.375000  0.375000  0.000000      6.000000
  0.500000  0.375000  0.000000     24.000000
 -0.375000  0.375000  0.000000     12.000000
  0.500000  0.500000  0.000000      3.000000
  0.375000  0.250000  0.125000     24.000000
  0.500000  0.250000  0.125000     48.000000
 -0.375000  0.250000  0.125000     24.000000
  0.500000  0.375000  0.125000     24.000000
 -0.375000  0.375000  0.125000     48.000000
 -0.250000  0.375000  0.125000     24.000000
 -0.375000  0.500000  0.125000     12.000000
 -0.250000  0.500000  0.250000      6.000000

 Following cartesian coordinates:
            Coordinates               Weight
  0.000000  0.000000  0.000000      1.000000
 -0.014068  0.014068  0.014068      8.000000
 -0.028135  0.028135  0.028135      8.000000
 -0.042203  0.042203  0.042203      8.000000
 -0.056270  0.056270  0.056270      4.000000
  0.000000  0.000000  0.028135      6.000000
 -0.014068  0.014068  0.042203     24.000000
 -0.028135  0.028135  0.056270     24.000000
 -0.042203  0.042203  0.070338     24.000000
  0.056270 -0.056270 -0.028135     24.000000
  0.042203 -0.042203 -0.014068     24.000000
  0.028135 -0.028135  0.000000     12.000000
  0.000000  0.000000  0.056270      6.000000
 -0.014068  0.014068  0.070338     24.000000
 -0.028135  0.028135  0.084405     24.000000
  0.070338 -0.070338 -0.014068     24.000000
  0.056270 -0.056270  0.000000     12.000000
  0.000000  0.000000  0.084405      6.000000
 -0.014068  0.014068  0.098473     24.000000
  0.084405 -0.084405  0.000000     12.000000
  0.000000  0.000000  0.112540      3.000000
 -0.000000  0.028135  0.056270     24.000000
 -0.014068  0.042203  0.070338     48.000000
  0.084405 -0.056270 -0.028135     24.000000
 -0.000000  0.028135  0.084405     24.000000
  0.098473 -0.070338 -0.014068     48.000000
  0.084405 -0.056270 -0.000000     24.000000
  0.112540 -0.084405  0.000000     12.000000
[...]
  -0.25000000  0.25000000  0.00000000       0.023
   0.37500000  0.37500000  0.00000000       0.012
   0.50000000  0.37500000  0.00000000       0.047
  -0.37500000  0.37500000  0.00000000       0.023
   0.50000000  0.50000000  0.00000000       0.006
   0.37500000  0.25000000  0.12500000       0.047
   0.50000000  0.25000000  0.12500000       0.094
  -0.37500000  0.25000000  0.12500000       0.047
   0.50000000  0.37500000  0.12500000       0.047
  -0.37500000  0.37500000  0.12500000       0.094
  -0.25000000  0.37500000  0.12500000       0.047
  -0.37500000  0.50000000  0.12500000       0.023
  -0.25000000  0.50000000  0.25000000       0.012

 position of ions in fractional coordinates (direct lattice)
   0.25000051  0.25000051  0.25000051
   0.75000039  0.75000039  0.75000039
   0.00000000  0.00000000  0.00000000
   0.49999989  0.49999989  0.49999989

 position of ions in cartesian coordinates  (Angst):
   2.22143000  2.22143000  2.22143000
   6.66428000  6.66428000  6.66428000
   0.00000000  0.00000000  0.00000000
   4.44285000  4.44285000  4.44285000

 k-point  1 :   0.0000 0.0000 0.0000  plane waves:    4693
 k-point  2 :   0.1250 0.0000 0.0000  plane waves:    4735
 k-point  3 :   0.2500 0.0000 0.0000  plane waves:    4738
 k-point  4 :   0.3750 0.0000 0.0000  plane waves:    4714
 k-point  5 :   0.5000 0.0000 0.0000  plane waves:    4766
 k-point  6 :   0.1250 0.1250 0.0000  plane waves:    4741
 k-point  7 :   0.2500 0.1250 0.0000  plane waves:    4734
 k-point  8 :   0.3750 0.1250 0.0000  plane waves:    4708
 k-point  9 :   0.5000 0.1250 0.0000  plane waves:    4722
 k-point 10 :  -0.3750 0.1250 0.0000  plane waves:    4715
 k-point 11 :  -0.2500 0.1250 0.0000  plane waves:    4722
 k-point 12 :  -0.1250 0.1250 0.0000  plane waves:    4737
 k-point 13 :   0.2500 0.2500 0.0000  plane waves:    4729
 k-point 14 :   0.3750 0.2500 0.0000  plane waves:    4723
 k-point 15 :   0.5000 0.2500 0.0000  plane waves:    4718
 k-point 16 :  -0.3750 0.2500 0.0000  plane waves:    4723
 k-point 17 :  -0.2500 0.2500 0.0000  plane waves:    4712
 k-point 18 :   0.3750 0.3750 0.0000  plane waves:    4716
 k-point 19 :   0.5000 0.3750 0.0000  plane waves:    4727
 k-point 20 :  -0.3750 0.3750 0.0000  plane waves:    4714
 k-point 21 :   0.5000 0.5000 0.0000  plane waves:    4720
 k-point 22 :   0.3750 0.2500 0.1250  plane waves:    4724
 k-point 23 :   0.5000 0.2500 0.1250  plane waves:    4717
 k-point 24 :  -0.3750 0.2500 0.1250  plane waves:    4732
 k-point 25 :   0.5000 0.3750 0.1250  plane waves:    4727
 k-point 26 :  -0.3750 0.3750 0.1250  plane waves:    4721
 k-point 27 :  -0.2500 0.3750 0.1250  plane waves:    4722
 k-point 28 :  -0.3750 0.5000 0.1250  plane waves:    4718
 k-point 29 :  -0.2500 0.5000 0.2500  plane waves:    4712

 maximum and minimum number of plane-waves per node :       710      653

 maximum number of plane-waves:      4766
 maximum index in each direction:
   IXMAX=   12   IYMAX=   11   IZMAX=   11
   IXMIN=  -12   IYMIN=  -12   IZMIN=  -11

 parallel 3D FFT for wavefunctions:
    minimum data exchange during FFTs selected (reduces bandwidth)
 parallel 3D FFT for charge:
    minimum data exchange during FFTs selected (reduces bandwidth)

 Broyden mixing: mesh for mixing (old mesh)
   NGX = 23   NGY = 23   NGZ = 23
  (NGX  = 96   NGY  = 96   NGZ  = 96)
  gives a total of  12167 points

 initial charge density was supplied:
 charge density of overlapping atoms calculated
 number of electron      42.0000000 magnetization
 keeping initial charge density in first step

 Maximum index for augmentation-charges         4406 (set IRDMAX)

 First call to EWALD:  gamma=   0.317
 Maximum number of real-space cells 3x 3x 3
 Maximum number of reciprocal cells 3x 3x 3

--------------------------------------- Iteration      1(   1)  ---------------------------------------

 eigenvalue-minimisations  :  1450
 total energy-change (2. order) : 0.3941232E+03  (-0.1974089E+04)
 number of electron      42.0000000 magnetization
 augmentation part       42.0000000 magnetization

 Free energy of the ion-electron system (eV)
  alpha Z        PSCENC =       141.22081525
  Ewald energy   TEWEN  =     -2681.49754213
  -Hartree energ DENC   =     -1151.78515267
  -exchange      EXHF   =         0.00000000
  -V(xc)+E(xc)   XCENC  =       129.98614631
  PAW double counting   =      3288.09641306    -3241.43768472
  entropy T*S    EENTRO =        -0.00131951
  eigenvalues    EBANDS =      -155.35147539
  atomic energy  EATOM  =      4064.89301065
  Solvation  Ediel_sol  =         0.00000000
  free energy    TOTEN  =       394.12321086 eV

  energy without entropy =      394.12453037  energy(sigma->0) =      394.12387062

[...]

 eigenvalue-minimisations  :  1676
 total energy-change (2. order) :-0.3681917E+03  (-0.3627104E+03)
 number of electron      42.0000000 magnetization
 augmentation part       42.0000000 magnetization

[...]

 Broyden mixing:
  rms(total) = 0.45432E+00    rms(broyden)= 0.45432E+00
  rms(prec ) = 0.10519E+01
  weight for this iteration     100.00

[...]

 eigenvalues of (default mixing * dielectric matrix)
  average eigenvalue GAMMA=   1.7571
  1.7571

[...]

 average (electrostatic) potential at core
  the test charge radii are     1.0856  1.1312  1.1045
  (the norm of the test charge is              1.0000)
       1-107.2322       2 -50.8057       3 -36.4479       4 -36.4479

 E-fermi :   2.0334     XC(G=0):  -7.6831     alpha+bet : -7.4589

 k-point     1 :       0.0000    0.0000    0.0000
  band No.  band energies     occupation
      1     -29.1779      2.00000
      2     -29.1687      2.00000
      3     -21.0742      2.00000
      4     -19.0224      2.00000
      5     -19.0224      2.00000
      6     -19.0224      2.00000
      7     -19.0180      2.00000
      8     -19.0180      2.00000
      9     -12.7110      2.00000
     10     -12.7110      2.00000
     11     -12.7110      2.00000
     12     -12.6627      2.00000
     13     -12.6627      2.00000
     14     -12.6627      2.00000
     15      -7.9255      2.00000
     16      -7.9255      2.00000
     17      -7.9255      2.00000
     18      -7.0373      2.00000
     19       1.8609      2.00000
     20       1.8609      2.00000
     21       1.8609      2.00000
     22       2.1971      0.00000
     23       4.0118      0.00000
     24       4.0118      0.00000
     25       4.4279      0.00000

[...]

 soft charge-density along one line, spin component           1
         0         1         2         3         4         5         6         7         8         9
 total charge-density along one line

------------------------ aborting loop because EDIFF is reached ----------------------------------------

  FORCE on cell =-STRESS in cart. coord.  units (eV):
  Direction    XX          YY          ZZ          XY          YZ          ZX
  Alpha Z   141.22082   141.22082   141.22082
  Ewald    -893.83327  -893.83327  -893.83327     0.00010     0.00010     0.00010
  Hartree   383.86569   383.86569   383.86569     0.00002     0.00002     0.00002
  E(xc)    -180.79441  -180.79441  -180.79441     0.00000     0.00000     0.00000
  Local     -94.97511   -94.97511   -94.97511    -0.00013    -0.00013    -0.00013
  n-local     1.78839     1.83264     0.34413     1.19102    -0.96498     0.62739
  augment   137.42338   137.42338   137.42338     0.00001     0.00001     0.00001
  Kinetic   506.88115   506.42623   504.46819     2.26745    -1.90522     1.32763
  Fock        0.00000     0.00000     0.00000     0.00000     0.00000     0.00000
  Total       0.15401     0.15401     0.15401     0.00000     0.00000     0.00000
  in kB       1.40680     1.40680     1.40680     0.00000     0.00000     0.00000

 VOLUME and BASIS-vectors are now :
  energy-cutoff  :      520.00
  volume of cell :      175.39
      direct lattice vectors                 reciprocal lattice vectors
     0.000000000  4.442851000  4.442851000    -0.112540349  0.112540349  0.112540349
     4.442851000  0.000000000  4.442851000     0.112540349 -0.112540349  0.112540349
     4.442851000  4.442851000  0.000000000     0.112540349  0.112540349 -0.112540349

[...]

 FORCES acting on ions
    electron-ion (+dipol)            ewald-force                    non-local-force                 convergence-correction
   -.204E-02 -.204E-02 -.192E-02   -.511E-03 -.511E-03 -.511E-03   -.101E-20 0.492E-20 -.847E-21   0.126E-04 0.126E-04 0.138E-04
   -.616E-03 -.616E-03 -.542E-03   -.176E-03 -.176E-03 -.176E-03   0.000E+00 0.000E+00 0.000E+00   0.232E-05 0.232E-05 0.185E-05
   0.165E-02 0.165E-02 0.175E-02   0.279E-03 0.279E-03 0.279E-03   -.173E-16 0.000E+00 -.137E-16   -.308E-05 -.308E-05 -.302E-05
   0.235E-02 0.235E-02 0.244E-02   0.409E-03 0.409E-03 0.409E-03   0.121E-16 0.000E+00 0.143E-16   -.673E-05 -.673E-05 -.668E-05
   0.135E-02 0.135E-02 0.174E-02   0.121E-14 -.149E-15 0.220E-14   -.521E-17 0.492E-20 0.650E-18   0.511E-05 0.511E-05 0.590E-05

 POSITION                                       TOTAL-FORCE (eV/Angst)
      2.22143      2.22143      2.22143         0.000000     -0.000000     -0.000000
      6.66428      6.66428      6.66428         0.000000     -0.000000     -0.000000
      0.00000      0.00000      0.00000         0.000000      0.000000      0.000000
      4.44285      4.44285      4.44285        -0.000000     -0.000000     -0.000000
    total drift:                                0.001350      0.001350      0.001741

  FREE ENERGIE OF THE ION-ELECTRON SYSTEM (eV)
  free  energy   TOTEN  =        -8.31478596 eV

  energy  without entropy=       -8.31478595  energy(sigma->0) =       -8.31478596

[...]

 d Force = 0.0000000E+00[ 0.000E+00, 0.000E+00]  d Energy = 0.6828750E-03-0.683E-03
 d Force = 0.0000000E+00[ 0.000E+00, 0.000E+00]  d Ewald  =-0.4971406E+01 0.497E+01

 Steepest descent step on ions:
 trial-energy change:   -0.000683  1 .order   -0.000729   -0.000858   -0.000599
  (g-gl).g = 0.858E-03      g.g   = 0.858E-03  gl.gl    = 0.000E+00
 g(Force)  = 0.161E-37   g(Stress)= 0.858E-03 ortho     = 0.000E+00
 gamma     =   0.00000
 trial     =   1.00000
 opt step  =   3.31050  (harmonic =   3.31050) maximal distance =0.00000000
 next E    =    -8.316206   (d E  =  -0.00142)

[...]

 d Force = 0.0000000E+00[ 0.000E+00, 0.000E+00]  d Energy = 0.1824554E-03-0.182E-03
 d Force = 0.0000000E+00[ 0.000E+00, 0.000E+00]  d Ewald  = 0.3827140E+01-0.383E+01

[...]

 d Force = 0.0000000E+00[ 0.000E+00, 0.000E+00]  d Energy =-0.8863055E-04 0.886E-04
 d Force = 0.0000000E+00[ 0.000E+00, 0.000E+00]  d Ewald  = 0.4838587E+01-0.484E+01

[...]

 eigenvalue-minimisations  :  1810
 total energy-change (2. order) :-0.9902269E-06  (-0.1901077E-04)
 number of electron      42.0000003 magnetization
 augmentation part        6.7133795 magnetization

 Broyden mixing:
  rms(total) = 0.30386E-02    rms(broyden)= 0.30386E-02
  rms(prec ) = 0.36160E-02
  weight for this iteration     100.00

 eigenvalues of (default mixing * dielectric matrix)
  average eigenvalue GAMMA=   1.7481
  1.5589  1.8427  1.8427

[...]

--------------------------------------- Iteration      6(   5)  ---------------------------------------

 eigenvalue-minimisations  :  1418
 total energy-change (2. order) : 0.1987765E-05  (-0.4553256E-05)
 number of electron      42.0000003 magnetization
 augmentation part        6.7133795 magnetization

 Free energy of the ion-electron system (eV)
  alpha Z        PSCENC =       139.65821781
  Ewald energy   TEWEN  =     -2671.57065026
  -Hartree energ DENC   =     -1157.60085270
  -exchange      EXHF   =         0.00000000
  -V(xc)+E(xc)   XCENC  =       129.76771282
  PAW double counting   =      3385.37403152    -3341.70930070
  entropy T*S    EENTRO =        -0.00000002
  eigenvalues    EBANDS =      -557.12793412
  atomic energy  EATOM  =      4064.89301065
  Solvation  Ediel_sol  =         0.00000000
  free energy    TOTEN  =        -8.31576500 eV

  energy without entropy =       -8.31576498  energy(sigma->0) =       -8.31576499

 average (electrostatic) potential at core
  the test charge radii are     1.0856  1.1312  1.1045
  (the norm of the test charge is              1.0000)
       1-107.2890       2 -50.8652       3 -36.5111       4 -36.5111

 E-fermi :   1.9705     XC(G=0):  -7.6422     alpha+bet : -7.3764

[...]

 k-point    29 :      -0.2500    0.5000    0.2500
  band No.  band energies     occupation
      1     -29.2351      2.00000
      2     -29.2351      2.00000
      3     -21.1337      2.00000
      4     -19.0788      2.00000
      5     -19.0788      2.00000
      6     -19.0788      2.00000
      7     -19.0749      2.00000
      8     -19.0748      2.00000
      9     -12.7998      2.00000
     10     -12.7787      2.00000
     11     -12.7512      2.00000
     12     -12.7512      2.00000
     13     -12.7104      2.00000
     14     -12.7091      2.00000
     15      -7.9991      2.00000
     16      -7.9991      2.00000
     17      -7.9881      2.00000
     18      -6.9784      2.00000
     19       1.2052      2.00000
     20       1.2052      2.00000
     21       1.3764      2.00000
     22       4.0699      0.00000
     23       4.3091      0.00000
     24       4.3091      0.00000
     25       4.8400      0.00000

 soft charge-density along one line, spin component           1
         0         1         2         3         4         5         6         7         8         9
 total charge-density along one line

------------------------ aborting loop because EDIFF is reached ----------------------------------------

  FORCE on cell =-STRESS in cart. coord.  units (eV):
  Direction    XX          YY          ZZ          XY          YZ          ZX
  Alpha Z   139.65822   139.65822   139.65822
  Ewald    -890.52430  -890.52430  -890.52430     0.00010     0.00010     0.00010
  Hartree   385.85080   385.85080   385.85080     0.00002     0.00002     0.00002
  E(xc)    -180.75451  -180.75451  -180.75451     0.00000     0.00000     0.00000
  Local     -98.63918   -98.63918   -98.63918    -0.00013    -0.00013    -0.00013
  n-local     1.73671     1.78093     0.27608     1.21063    -0.98355     0.63824
  augment   137.42455   137.42455   137.42455     0.00001     0.00001     0.00001
  Kinetic   506.66780   506.22897   504.25596     2.25784    -1.89412     1.31889
  Fock        0.00000     0.00000     0.00000     0.00000     0.00000     0.00000
  Total      -0.00228    -0.00228    -0.00228    -0.00000    -0.00000    -0.00000
  in kB      -0.02057    -0.02057    -0.02057    -0.00000    -0.00000    -0.00000

 VOLUME and BASIS-vectors are now :
  energy-cutoff  :      520.00
  volume of cell :      177.36
      direct lattice vectors                 reciprocal lattice vectors
    -0.000000000  4.459359529  4.459359529    -0.112123725  0.112123725  0.112123725
     4.459359529  0.000000000  4.459359529     0.112123725 -0.112123725  0.112123725
     4.459359529  4.459359529 -0.000000000     0.112123725  0.112123725 -0.112123725

  length of vectors
     6.306486725  6.306486725  6.306486725     0.194203988  0.194203988  0.194203988

 FORCES acting on ions
    electron-ion (+dipol)            ewald-force                    non-local-force                 convergence-correction
   -.205E-02 -.205E-02 -.192E-02   -.507E-03 -.507E-03 -.507E-03   -.116E-20 -.244E-20 0.127E-20   -.871E-07 -.871E-07 -.758E-07
   -.619E-03 -.619E-03 -.544E-03   -.175E-03 -.175E-03 -.175E-03   0.741E-21 0.529E-21 0.212E-21   -.113E-07 -.113E-07 -.126E-07
   0.166E-02 0.166E-02 0.176E-02   0.276E-03 0.276E-03 0.276E-03   -.173E-17 0.173E-17 0.260E-17   0.109E-06 0.109E-06 0.119E-06
   0.236E-02 0.236E-02 0.246E-02   0.406E-03 0.406E-03 0.406E-03   0.347E-17 -.520E-17 -.865E-18   0.153E-06 0.153E-06 0.163E-06
   0.136E-02 0.136E-02 0.175E-02   -.224E-15 0.527E-15 -.158E-14   0.173E-17 -.347E-17 0.174E-17   0.165E-06 0.165E-06 0.193E-06

 POSITION                                       TOTAL-FORCE (eV/Angst)
      2.22968      2.22968      2.22968        -0.000000     -0.000000     -0.000000
      6.68904      6.68904      6.68904         0.000000      0.000000      0.000000
      0.00000      0.00000      0.00000         0.000000      0.000000      0.000000
      4.45936      4.45936      4.45936        -0.000000     -0.000000     -0.000000
    total drift:                                0.001357      0.001357      0.001755

  FREE ENERGIE OF THE ION-ELECTRON SYSTEM (eV)
  free  energy   TOTEN  =        -8.31576500 eV

  energy  without entropy=       -8.31576498  energy(sigma->0) =       -8.31576499

 d Force = 0.0000000E+00[ 0.000E+00, 0.000E+00]  d Energy = 0.9159275E-04-0.916E-04
 d Force = 0.0000000E+00[ 0.000E+00, 0.000E+00]  d Ewald  =-0.2204960E+01 0.220E+01

 reached required accuracy - stopping structural energy minimisation