 vasp.5.4.4.18Apr17-6-g9f103f2a35 (build Jun 23 2019 17:35:09) complex

 executed on             LinuxIFC date 2020.01.14  23:25:09

 INCAR:
 POTCAR:    PAW_PBE Li_sv 10Sep2004
 POTCAR:    PAW_PBE Na_pv 19Sep2006
 POTCAR:    PAW_PBE Sb 06Sep2000

 POTCAR:    PAW_PBE Li_sv 10Sep2004
   VRHFIN =Li: 1s2s2p

   TITEL  = PAW_PBE Li_sv 10Sep2004
   POMASS =    7.010; ZVAL   =    3.000    mass and valenz
   ENMAX  =  499.034; ENMIN  =  374.276 eV

 POTCAR:    PAW_PBE Na_pv 19Sep2006
   VRHFIN =Na: p6s1

   TITEL  = PAW_PBE Na_pv 19Sep2006
   POMASS =   22.990; ZVAL   =    7.000    mass and valenz
   ENMAX  =  259.561; ENMIN  =  194.671 eV

 POTCAR:    PAW_PBE Sb 06Sep2000
   VRHFIN =Sb: s2p3

   TITEL  = PAW_PBE Sb 06Sep2000
   POMASS =  121.750; ZVAL   =    5.000    mass and valenz
   ENMAX  =  172.069; ENMIN  =  129.052 eV

  PAW_PBE Li_sv 10Sep2004               :
  PAW_PBE Na_pv 19Sep2006               :
  PAW_PBE Sb 06Sep2000                  :

 POSCAR: Na Sb Li
  positions in direct lattice
 exchange correlation table for  LEXCH =        8
   RHO(1)=    0.500       N(1)  =     2000
   RHO(2)=  100.500       N(2)  =     4000

 ion  position               nearest neighbor table
   1  0.750  0.500  0.250-   4 2.93   4 2.93   4 2.93   4 2.93
   2  0.250  0.500  0.750-   4 2.93   4 2.93   4 2.93   4 2.93
   3  0.500  0.000  0.500-
   4  0.000  0.000  0.000-   1 2.93   2 2.93   1 2.93   2 2.93   1 2.93   2 2.93   1 2.93   2 2.93

  LATTYP: Found a face centered cubic cell.
 ALAT       =     6.7562160000

  Lattice vectors:

 A1 = (  -3.3781080000,   0.0000000000,  -3.3781080000)
 A2 = (   0.0000000000,  -3.3781080000,  -3.3781080000)
 A3 = (  -3.3781080000,  -3.3781080000,   0.0000000000)

Analysis of symmetry for initial positions (statically):
 Subroutine PRICEL returns:
 Original cell was already a primitive cell.

 Routine SETGRP: Setting up the symmetry group for a
 face centered cubic supercell.

 Subroutine GETGRP returns: Found 48 space group operations
 (whereof 48 operations were pure point group operations)
 out of a pool of 48 trial point group operations.

The static configuration has the point symmetry O_h .

Analysis of symmetry for dynamics (positions and initial velocities):
 Subroutine PRICEL returns:
 Original cell was already a primitive cell.

 Routine SETGRP: Setting up the symmetry group for a
 face centered cubic supercell.

 Subroutine GETGRP returns: Found 48 space group operations
 (whereof 48 operations were pure point group operations)
 out of a pool of 48 trial point group operations.

The dynamic configuration has the point symmetry O_h .

 Subroutine INISYM returns: Found 48 space group operations
 (whereof 48 operations are pure point group operations),
 and found     1 'primitive' translations

 KPOINTS: KPOINTS

Automatic generation of k-mesh.
Space group operators:
 irot       det(A)        alpha          n_x          n_y          n_z        tau_x        tau_y        tau_z
    1     1.000000     0.000000     1.000000     0.000000     0.000000     0.000000     0.000000     0.000000
    2    -1.000000     0.000000     1.000000     0.000000     0.000000     0.000000     0.000000     0.000000
    3     1.000000   120.000000     0.577350     0.577350     0.577350     0.000000     0.000000     0.000000
    4    -1.000000   120.000000     0.577350     0.577350     0.577350     0.000000     0.000000     0.000000
    5     1.000000   120.000000    -0.577350    -0.577350    -0.577350     0.000000     0.000000     0.000000
    6    -1.000000   120.000000    -0.577350    -0.577350    -0.577350     0.000000     0.000000     0.000000
    7     1.000000    90.000000     0.000000     0.000000     1.000000     0.000000     0.000000     0.000000
    8    -1.000000    90.000000     0.000000     0.000000     1.000000     0.000000     0.000000     0.000000
    9     1.000000   180.000000     0.707107     0.000000     0.707107     0.000000     0.000000     0.000000
   10    -1.000000   180.000000     0.707107     0.000000     0.707107     0.000000     0.000000     0.000000
   11     1.000000    90.000000    -1.000000     0.000000     0.000000     0.000000     0.000000     0.000000
   12    -1.000000    90.000000    -1.000000     0.000000     0.000000     0.000000     0.000000     0.000000
   13     1.000000   179.999999     0.000000     0.000000     1.000000     0.000000     0.000000     0.000000
   14    -1.000000   179.999999     0.000000     0.000000     1.000000     0.000000     0.000000     0.000000
   15     1.000000   120.000000    -0.577350     0.577350    -0.577350     0.000000     0.000000     0.000000
   16    -1.000000   120.000000    -0.577350     0.577350    -0.577350     0.000000     0.000000     0.000000
   17     1.000000   120.000000    -0.577350     0.577350     0.577350     0.000000     0.000000     0.000000
   18    -1.000000   120.000000    -0.577350     0.577350     0.577350     0.000000     0.000000     0.000000
   19     1.000000    90.000000     0.000000     0.000000    -1.000000     0.000000     0.000000     0.000000
   20    -1.000000    90.000000     0.000000     0.000000    -1.000000     0.000000     0.000000     0.000000
   21     1.000000    90.000000     0.000000     1.000000     0.000000     0.000000     0.000000     0.000000
   22    -1.000000    90.000000     0.000000     1.000000     0.000000     0.000000     0.000000     0.000000
   23     1.000000   180.000000     0.000000     0.707107     0.707107     0.000000     0.000000     0.000000
   24    -1.000000   180.000000     0.000000     0.707107     0.707107     0.000000     0.000000     0.000000
   25     1.000000   120.000000     0.577350    -0.577350    -0.577350     0.000000     0.000000     0.000000
   26    -1.000000   120.000000     0.577350    -0.577350    -0.577350     0.000000     0.000000     0.000000
   27     1.000000   120.000000     0.577350     0.577350    -0.577350     0.000000     0.000000     0.000000
   28    -1.000000   120.000000     0.577350     0.577350    -0.577350     0.000000     0.000000     0.000000
   29     1.000000   180.000000     0.000000     1.000000     0.000000     0.000000     0.000000     0.000000
   30    -1.000000   180.000000     0.000000     1.000000     0.000000     0.000000     0.000000     0.000000
   31     1.000000    90.000000     1.000000     0.000000     0.000000     0.000000     0.000000     0.000000
   32    -1.000000    90.000000     1.000000     0.000000     0.000000     0.000000     0.000000     0.000000
   33     1.000000   180.000000     0.707107     0.707107     0.000000     0.000000     0.000000     0.000000
   34    -1.000000   180.000000     0.707107     0.707107     0.000000     0.000000     0.000000     0.000000
   35     1.000000    90.000000     0.000000    -1.000000     0.000000     0.000000     0.000000     0.000000
   36    -1.000000    90.000000     0.000000    -1.000000     0.000000     0.000000     0.000000     0.000000
   37     1.000000   120.000000     0.577350    -0.577350     0.577350     0.000000     0.000000     0.000000
   38    -1.000000   120.000000     0.577350    -0.577350     0.577350     0.000000     0.000000     0.000000
   39     1.000000   180.000000     1.000000     0.000000     0.000000     0.000000     0.000000     0.000000
   40    -1.000000   180.000000     1.000000     0.000000     0.000000     0.000000     0.000000     0.000000
   41     1.000000   120.000000    -0.577350    -0.577350     0.577350     0.000000     0.000000     0.000000
   42    -1.000000   120.000000    -0.577350    -0.577350     0.577350     0.000000     0.000000     0.000000
   43     1.000000   180.000000     0.707107     0.000000    -0.707107     0.000000     0.000000     0.000000
   44    -1.000000   180.000000     0.707107     0.000000    -0.707107     0.000000     0.000000     0.000000
   45     1.000000   180.000000     0.707107    -0.707107     0.000000     0.000000     0.000000     0.000000
   46    -1.000000   180.000000     0.707107    -0.707107     0.000000     0.000000     0.000000     0.000000
   47     1.000000   180.000000     0.000000    -0.707107     0.707107     0.000000     0.000000     0.000000
   48    -1.000000   180.000000     0.000000    -0.707107     0.707107     0.000000     0.000000     0.000000

 Subroutine IBZKPT returns following result:

 Found     29 irreducible k-points:

 Following reciprocal coordinates:
            Coordinates               Weight
  0.000000  0.000000  0.000000      1.000000
  0.125000  0.000000  0.000000      8.000000
  0.250000  0.000000  0.000000      8.000000
  0.375000  0.000000  0.000000      8.000000
  0.500000  0.000000  0.000000      4.000000
  0.000000  0.125000  0.000000      6.000000
  0.125000  0.125000  0.000000     24.000000
  0.250000  0.125000  0.000000     24.000000
  0.375000  0.125000  0.000000     24.000000
  0.500000  0.125000  0.000000     24.000000
 -0.375000  0.125000  0.000000     24.000000
 -0.250000  0.125000  0.000000     12.000000
  0.000000  0.250000  0.000000      6.000000
  0.125000  0.250000  0.000000     24.000000
  0.250000  0.250000  0.000000     24.000000
  0.375000  0.250000  0.000000     24.000000
  0.500000  0.250000  0.000000     12.000000
  0.000000  0.375000  0.000000      6.000000
  0.125000  0.375000  0.000000     24.000000
  0.250000  0.375000  0.000000     12.000000
  0.000000  0.500000  0.000000      3.000000
  0.125000  0.125000  0.125000     24.000000
  0.250000  0.125000  0.125000     48.000000
  0.375000  0.125000  0.125000     24.000000
  0.125000  0.250000  0.125000     24.000000
  0.250000  0.250000  0.125000     48.000000
  0.375000  0.250000  0.125000     24.000000
  0.125000  0.375000  0.125000     12.000000
  0.250000  0.250000  0.250000      6.000000

 Following cartesian coordinates:
            Coordinates               Weight
  0.000000  0.000000  0.000000      1.000000
  0.018501 -0.018501 -0.018501      8.000000
  0.037003 -0.037003 -0.037003      8.000000
  0.055504 -0.055504 -0.055504      8.000000
  0.074006 -0.074006 -0.074006      4.000000
  0.000000  0.000000 -0.037003      6.000000
  0.018501 -0.018501 -0.055504     24.000000
  0.037003 -0.037003 -0.074006     24.000000
  0.055504 -0.055504 -0.092507     24.000000
  0.074006 -0.074006 -0.111009     24.000000
 -0.055504  0.055504  0.018501     24.000000
 -0.037003  0.037003  0.000000     12.000000
  0.000000  0.000000 -0.074006      6.000000
  0.018501 -0.018501 -0.092507     24.000000
  0.037003 -0.037003 -0.111009     24.000000
  0.055504 -0.055504 -0.129510     24.000000
  0.074006 -0.074006 -0.148012     12.000000
  0.000000  0.000000 -0.111009      6.000000
  0.018501 -0.018501 -0.129510     24.000000
  0.037003 -0.037003 -0.148012     12.000000
  0.000000  0.000000 -0.148012      3.000000
  0.037003  0.000000 -0.074006     24.000000
  0.055504 -0.018501 -0.092507     48.000000
  0.074006 -0.037003 -0.111009     24.000000
  0.037003  0.000000 -0.111009     24.000000
  0.055504 -0.018501 -0.129510     48.000000
  0.074006 -0.037003 -0.148012     24.000000
  0.037003  0.000000 -0.148012     12.000000
  0.074006  0.000000 -0.148012      6.000000

 SYSTEM =  unknown system
 POSCAR =  Na Sb Li

 Startparameter for this run:
[...]
   0.07400592 -0.03700296 -0.14801185       0.047
   0.03700296  0.00000000 -0.14801185       0.023
   0.07400592  0.00000000 -0.14801185       0.012

 k-points in reciprocal lattice and weights: KPOINTS
   0.00000000  0.00000000  0.00000000       0.002
   0.12500000  0.00000000  0.00000000       0.016
   0.25000000  0.00000000  0.00000000       0.016
   0.37500000  0.00000000  0.00000000       0.016
   0.50000000  0.00000000  0.00000000       0.008
   0.00000000  0.12500000  0.00000000       0.012
   0.12500000  0.12500000  0.00000000       0.047
   0.25000000  0.12500000  0.00000000       0.047
   0.37500000  0.12500000  0.00000000       0.047
   0.50000000  0.12500000  0.00000000       0.047
  -0.37500000  0.12500000  0.00000000       0.047
  -0.25000000  0.12500000  0.00000000       0.023
   0.00000000  0.25000000  0.00000000       0.012
   0.12500000  0.25000000  0.00000000       0.047
   0.25000000  0.25000000  0.00000000       0.047
   0.37500000  0.25000000  0.00000000       0.047
   0.50000000  0.25000000  0.00000000       0.023
   0.00000000  0.37500000  0.00000000       0.012
   0.12500000  0.37500000  0.00000000       0.047
   0.25000000  0.37500000  0.00000000       0.023
   0.00000000  0.50000000  0.00000000       0.006
   0.12500000  0.12500000  0.12500000       0.047
   0.25000000  0.12500000  0.12500000       0.094
   0.37500000  0.12500000  0.12500000       0.047
   0.12500000  0.25000000  0.12500000       0.047
   0.25000000  0.25000000  0.12500000       0.094
   0.37500000  0.25000000  0.12500000       0.047
   0.12500000  0.37500000  0.12500000       0.023
   0.25000000  0.25000000  0.25000000       0.012

 position of ions in fractional coordinates (direct lattice)
   0.74999822  0.49999882  0.24999941
   0.24999941  0.49999882  0.74999822
   0.50000030  0.00000000  0.50000030
   0.00000000  0.00000000  0.00000000

 position of ions in cartesian coordinates  (Angst):
   1.68905000 -1.68905000 -1.68905000
   1.68905000  1.68905000 -1.68905000
   3.37811000  0.00000000  0.00000000
   0.00000000  0.00000000  0.00000000

 k-point  1 :   0.0000 0.0000 0.0000  plane waves:    2085
 k-point  2 :   0.1250 0.0000 0.0000  plane waves:    2073
 k-point  3 :   0.2500 0.0000 0.0000  plane waves:    2067
 k-point  4 :   0.3750 0.0000 0.0000  plane waves:    2072
 k-point  5 :   0.5000 0.0000 0.0000  plane waves:    2060
 k-point  6 :   0.0000 0.1250 0.0000  plane waves:    2061
 k-point  7 :   0.1250 0.1250 0.0000  plane waves:    2064
 k-point  8 :   0.2500 0.1250 0.0000  plane waves:    2072
 k-point  9 :   0.3750 0.1250 0.0000  plane waves:    2074
 k-point 10 :   0.5000 0.1250 0.0000  plane waves:    2068
 k-point 11 :  -0.3750 0.1250 0.0000  plane waves:    2070
 k-point 12 :  -0.2500 0.1250 0.0000  plane waves:    2067
 k-point 13 :   0.0000 0.2500 0.0000  plane waves:    2045
 k-point 14 :   0.1250 0.2500 0.0000  plane waves:    2075
 k-point 15 :   0.2500 0.2500 0.0000  plane waves:    2081
 k-point 16 :   0.3750 0.2500 0.0000  plane waves:    2080
 k-point 17 :   0.5000 0.2500 0.0000  plane waves:    2085
 k-point 18 :   0.0000 0.3750 0.0000  plane waves:    2072
 k-point 19 :   0.1250 0.3750 0.0000  plane waves:    2083
 k-point 20 :   0.2500 0.3750 0.0000  plane waves:    2085
 k-point 21 :   0.0000 0.5000 0.0000  plane waves:    2068
 k-point 22 :   0.1250 0.1250 0.1250  plane waves:    2056
 k-point 23 :   0.2500 0.1250 0.1250  plane waves:    2075
 k-point 24 :   0.3750 0.1250 0.1250  plane waves:    2062
 k-point 25 :   0.1250 0.2500 0.1250  plane waves:    2085
 k-point 26 :   0.2500 0.2500 0.1250  plane waves:    2085
 k-point 27 :   0.3750 0.2500 0.1250  plane waves:    2074
 k-point 28 :   0.1250 0.3750 0.1250  plane waves:    2082
 k-point 29 :   0.2500 0.2500 0.2500  plane waves:    2120

 maximum and minimum number of plane-waves per node :       309      283

 maximum number of plane-waves:      2120
 maximum index in each direction:
   IXMAX=    9   IYMAX=    8   IZMAX=    8
   IXMIN=   -9   IYMIN=   -9   IZMIN=   -9

 parallel 3D FFT for wavefunctions:
    minimum data exchange during FFTs selected (reduces bandwidth)
 parallel 3D FFT for charge:
    minimum data exchange during FFTs selected (reduces bandwidth)

 Broyden mixing: mesh for mixing (old mesh)
   NGX = 17   NGY = 17   NGZ = 17
  (NGX  = 72   NGY  = 72   NGZ  = 72)
  gives a total of   4913 points

 initial charge density was supplied:
 charge density of overlapping atoms calculated
 number of electron      18.0000000 magnetization
 keeping initial charge density in first step

 Maximum index for augmentation-charges         5418 (set IRDMAX)

 First call to EWALD:  gamma=   0.416
 Maximum number of real-space cells 3x 3x 3
 Maximum number of reciprocal cells 3x 3x 3

--------------------------------------- Iteration      1(   1)  ---------------------------------------

 eigenvalue-minimisations  :   754
 total energy-change (2. order) : 0.9289423E+02  (-0.8748242E+03)
 number of electron      18.0000000 magnetization
 augmentation part       18.0000000 magnetization

 Free energy of the ion-electron system (eV)
  alpha Z        PSCENC =        10.96907945
  Ewald energy   TEWEN  =      -674.76340655
  -Hartree energ DENC   =      -323.42246500
  -exchange      EXHF   =         0.00000000
  -V(xc)+E(xc)   XCENC  =         3.58653423
  PAW double counting   =       825.55058042     -890.97831796
  entropy T*S    EENTRO =        -0.00437345
  eigenvalues    EBANDS =      -179.58213156
  atomic energy  EATOM  =      1321.53873213
  Solvation  Ediel_sol  =         0.00000000
  free energy    TOTEN  =        92.89423169 eV

  energy without entropy =       92.89860515  energy(sigma->0) =       92.89641842

[...]

 eigenvalue-minimisations  :   804
 total energy-change (2. order) :-0.9342895E+02  (-0.9122867E+02)
 number of electron      18.0000000 magnetization
 augmentation part       18.0000000 magnetization

[...]

 Broyden mixing:
  rms(total) = 0.30356E+00    rms(broyden)= 0.30324E+00
  rms(prec ) = 0.62642E+00
  weight for this iteration     100.00

[...]

 eigenvalues of (default mixing * dielectric matrix)
  average eigenvalue GAMMA=   2.3521
  2.3521

[...]

 average (electrostatic) potential at core
  the test charge radii are     0.7079  0.9254  1.1712
  (the norm of the test charge is              1.0000)
       1 -61.6571       2 -61.6571       3 -46.3697       4 -87.7323

 E-fermi :   4.0937     XC(G=0):  -8.6919     alpha+bet :-10.7860

 k-point     1 :       0.0000    0.0000    0.0000
  band No.  band energies     occupation
      1     -42.5737      2.00000
      2     -42.5678      2.00000
      3     -20.5728      2.00000
      4     -20.5728      2.00000
      5     -20.5728      2.00000
      6      -5.2886      2.00000
      7       3.7907      2.00000
      8       3.7907      2.00000
      9       3.7907      2.00000
     10       5.6097      0.00000
     11       6.4234      0.00000
     12       6.4234      0.00000
     13       6.4234      0.00000

[...]

 soft charge-density along one line, spin component           1
         0         1         2         3         4         5         6         7         8         9
 total charge-density along one line

------------------------ aborting loop because EDIFF is reached ----------------------------------------

  FORCE on cell =-STRESS in cart. coord.  units (eV):
  Direction    XX          YY          ZZ          XY          YZ          ZX
  Alpha Z    10.96908    10.96908    10.96908
  Ewald    -224.92131  -224.92131  -224.92131     0.00000     0.00000     0.00015
  Hartree   105.01390   105.01390   105.01390    -0.00000     0.00000     0.00007
  E(xc)     -85.52743   -85.52745   -85.52753     0.00000     0.00000     0.00006
  Local     -58.46168   -58.46153   -58.46131    -0.00000    -0.00000    -0.00043
  n-local    28.35127    28.90904    28.76643     1.84439    -0.82680     1.38328
  augment    61.13135    61.13120    61.13100     0.00000    -0.00000     0.00017
  Kinetic   164.36466   165.08573   161.60381     2.85356    -1.26800     1.59140
  Fock        0.00000     0.00000     0.00000     0.00000     0.00000     0.00000
  Total       0.56419     0.56419     0.56419     0.00000     0.00000    -0.00000
  in kB      11.72432    11.72432    11.72432     0.00000     0.00000    -0.00000

 VOLUME and BASIS-vectors are now :
  energy-cutoff  :      520.00
  volume of cell :       77.10
      direct lattice vectors                 reciprocal lattice vectors
     3.378108000 -3.378108000  0.000000000     0.148011846 -0.148011846 -0.148011846
    -3.378108000  0.000000000 -3.378108000     0.000000000  0.000000000 -0.296023691
     3.378108000  3.378108000  0.000000000     0.148011846  0.148011846 -0.148011846

[...]

 FORCES acting on ions
    electron-ion (+dipol)            ewald-force                    non-local-force                 convergence-correction
   0.166E-02 -.166E-02 -.168E-02   0.146E-03 -.169E-03 -.113E-03   -.138E-17 0.209E-17 0.217E-18   0.475E-07 0.535E-06 -.114E-06
   0.166E-02 0.166E-02 -.168E-02   0.146E-03 0.169E-03 -.113E-03   -.518E-17 -.106E-17 0.217E-17   0.475E-07 -.535E-06 -.114E-06
   -.353E-03 0.860E-11 -.419E-04   -.252E-03 -.259E-14 0.131E-03   0.424E-21 0.000E+00 0.000E+00   0.140E-05 -.215E-13 -.651E-06
   -.508E-05 0.130E-11 -.299E-04   -.391E-04 0.397E-14 0.939E-04   -.159E-21 0.529E-22 0.000E+00   -.258E-07 -.909E-15 -.134E-06
   0.296E-02 0.972E-10 -.343E-02   -.278E-15 0.643E-16 0.292E-15   -.656E-17 0.103E-17 0.239E-17   0.147E-05 -.200E-13 -.101E-05

 POSITION                                       TOTAL-FORCE (eV/Angst)
      1.68905     -1.68905     -1.68905         0.000000      0.000000     -0.000000
      1.68905      1.68905     -1.68905        -0.000000      0.000000      0.000000
      3.37811      0.00000      0.00000        -0.000000     -0.000000      0.000000
      0.00000      0.00000      0.00000        -0.000000     -0.000000      0.000000
    total drift:                                0.002964      0.000000     -0.003436

  FREE ENERGIE OF THE ION-ELECTRON SYSTEM (eV)
  free  energy   TOTEN  =       -11.57995739 eV

  energy  without entropy=      -11.57995739  energy(sigma->0) =      -11.57995739

[...]

 d Force = 0.0000000E+00[ 0.000E+00, 0.000E+00]  d Energy = 0.8095076E-02-0.810E-02
 d Force = 0.0000000E+00[ 0.000E+00, 0.000E+00]  d Ewald  =-0.4560423E+01 0.456E+01

 Steepest descent step on ions:
 trial-energy change:   -0.008095  1 .order   -0.008004   -0.011517   -0.004491
  (g-gl).g = 0.115E-01      g.g   = 0.115E-01  gl.gl    = 0.000E+00
 g(Force)  = 0.334E-39   g(Stress)= 0.115E-01 ortho     = 0.000E+00
 gamma     =   0.00000
 trial     =   1.00000
 opt step  =   1.56977  (harmonic =   1.63921) maximal distance =0.00000000
 next E    =   -11.589349   (d E  =  -0.00939)

[...]

 d Force = 0.0000000E+00[ 0.000E+00, 0.000E+00]  d Energy = 0.1202053E-05-0.120E-05
 d Force = 0.0000000E+00[ 0.000E+00, 0.000E+00]  d Ewald  =-0.1268871E+00 0.127E+00

[...]

 eigenvalue-minimisations  :   377
 total energy-change (2. order) : 0.1002081E-07  (-0.3353091E-07)
 number of electron      17.9999979 magnetization
 augmentation part        5.6273481 magnetization

 Broyden mixing:
  rms(total) = 0.96739E-04    rms(broyden)= 0.96673E-04
  rms(prec ) = 0.14480E-03
  weight for this iteration     100.00

 eigenvalues of (default mixing * dielectric matrix)
  average eigenvalue GAMMA=   1.8069
  2.4588  1.4810  1.4810

[...]

--------------------------------------- Iteration      6(   5)  ---------------------------------------

 eigenvalue-minimisations  :   377
 total energy-change (2. order) :-0.5848142E-07  (-0.8033661E-08)
 number of electron      17.9999979 magnetization
 augmentation part        5.6273481 magnetization

 Free energy of the ion-electron system (eV)
  alpha Z        PSCENC =        10.58173741
  Ewald energy   TEWEN  =      -666.72558547
  -Hartree energ DENC   =      -318.36368361
  -exchange      EXHF   =         0.00000000
  -V(xc)+E(xc)   XCENC  =         3.60585396
  PAW double counting   =      1017.89058573    -1084.21606832
  entropy T*S    EENTRO =        -0.00000000
  eigenvalues    EBANDS =      -295.90149201
  atomic energy  EATOM  =      1321.53873213
  Solvation  Ediel_sol  =         0.00000000
  free energy    TOTEN  =       -11.58992017 eV

  energy without entropy =      -11.58992017  energy(sigma->0) =      -11.58992017

 average (electrostatic) potential at core
  the test charge radii are     0.7079  0.9254  1.1712
  (the norm of the test charge is              1.0000)
       1 -61.9497       2 -61.9497       3 -46.6347       4 -87.9825

 E-fermi :   3.8568     XC(G=0):  -8.5619     alpha+bet :-10.4052

[...]

 k-point    29 :       0.2500    0.2500    0.2500
  band No.  band energies     occupation
      1     -42.8638      2.00000
      2     -42.8638      2.00000
      3     -20.8379      2.00000
      4     -20.8379      2.00000
      5     -20.8374      2.00000
      6      -4.6242      2.00000
      7       1.0924      2.00000
      8       1.0924      2.00000
      9       1.2344      2.00000
     10       6.6531      0.00000
     11       6.9391      0.00000
     12       7.9643      0.00000
     13       7.9643      0.00000

 soft charge-density along one line, spin component           1
         0         1         2         3         4         5         6         7         8         9
 total charge-density along one line

------------------------ aborting loop because EDIFF is reached ----------------------------------------

  FORCE on cell =-STRESS in cart. coord.  units (eV):
  Direction    XX          YY          ZZ          XY          YZ          ZX
  Alpha Z    10.58174    10.58174    10.58174
  Ewald    -222.24204  -222.24204  -222.24204     0.00000     0.00000     0.00015
  Hartree   106.12124   106.12124   106.12124    -0.00000     0.00000     0.00006
  E(xc)     -85.34046   -85.34049   -85.34058     0.00000     0.00000     0.00006
  Local     -61.62821   -61.62805   -61.62782    -0.00000    -0.00000    -0.00043
  n-local    28.57713    29.10027    28.83926     1.86592    -0.83586     1.40128
  augment    61.32427    61.32412    61.32391     0.00000     0.00000     0.00016
  Kinetic   163.02195   163.73225   160.29142     2.78864    -1.23370     1.55426
  Fock        0.00000     0.00000     0.00000     0.00000     0.00000     0.00000
  Total       0.00394     0.00394     0.00394     0.00000    -0.00000    -0.00000
  in kB       0.07889     0.07889     0.07889     0.00000    -0.00000    -0.00000

 VOLUME and BASIS-vectors are now :
  energy-cutoff  :      520.00
  volume of cell :       79.92
      direct lattice vectors                 reciprocal lattice vectors
     3.418833342 -3.418833342 -0.000000000     0.146248720 -0.146248720 -0.146248720
    -3.418833342 -0.000000000 -3.418833342    -0.000000000 -0.000000000 -0.292497440
     3.418833342  3.418833342 -0.000000000     0.146248720  0.146248720 -0.146248720

  length of vectors
     4.834960480  4.834960480  4.834960480     0.253310213  0.292497440  0.253310213

 FORCES acting on ions
    electron-ion (+dipol)            ewald-force                    non-local-force                 convergence-correction
   0.167E-02 -.168E-02 -.169E-02   0.142E-03 -.165E-03 -.110E-03   -.407E-17 0.157E-17 0.542E-18   0.778E-08 -.634E-08 -.773E-08
   0.167E-02 0.168E-02 -.169E-02   0.142E-03 0.165E-03 -.110E-03   0.434E-18 -.683E-17 0.543E-18   0.778E-08 0.634E-08 -.773E-08
   -.364E-03 0.117E-11 -.411E-04   -.246E-03 -.864E-14 0.128E-03   -.424E-21 -.424E-21 -.454E-23   -.427E-08 -.352E-14 0.138E-09
   -.482E-05 0.573E-11 -.293E-04   -.382E-04 -.290E-15 0.917E-04   0.000E+00 -.106E-21 0.884E-24   0.188E-10 -.935E-15 0.156E-09
   0.298E-02 -.828E-10 -.346E-02   -.835E-16 0.407E-15 -.531E-15   -.363E-17 -.526E-17 0.108E-17   0.113E-07 -.783E-14 -.152E-07

 POSITION                                       TOTAL-FORCE (eV/Angst)
      1.70941     -1.70941     -1.70941         0.000000     -0.000000     -0.000000
      1.70941      1.70941     -1.70941        -0.000000      0.000000      0.000000
      3.41884      0.00000     -0.00000         0.000000     -0.000000      0.000000
     -0.00000     -0.00000      0.00000         0.000000     -0.000000     -0.000000
    total drift:                                0.002977     -0.000000     -0.003457

  FREE ENERGIE OF THE ION-ELECTRON SYSTEM (eV)
  free  energy   TOTEN  =       -11.58992017 eV

  energy  without entropy=      -11.58992017  energy(sigma->0) =      -11.58992017

 d Force = 0.0000000E+00[ 0.000E+00, 0.000E+00]  d Energy = 0.2989239E-06-0.299E-06
 d Force = 0.0000000E+00[ 0.000E+00, 0.000E+00]  d Ewald  = 0.7237121E-01-0.724E-01

 reached required accuracy - stopping structural energy minimisation